 vasp.5.4.4.18Apr17-6-g9f103f2a35 (build Apr 28 2023 10:04:10) complex

 executed on             LinuxIFC date 2023.11.10  22:07:41

 INCAR:
 POTCAR:    PAW_PBE Mo_sv 02Feb2006
 POTCAR:    PAW_PBE S 06Sep2000

 POTCAR:    PAW_PBE Mo_sv 02Feb2006
   VRHFIN =Mo: 4p5s4d

   TITEL  = PAW_PBE Mo_sv 02Feb2006
   POMASS =   95.940; ZVAL   =   14.000    mass and valenz
   ENMAX  =  242.676; ENMIN  =  182.007 eV

 POTCAR:    PAW_PBE S 06Sep2000
   VRHFIN =S : s2p4

   TITEL  = PAW_PBE S 06Sep2000
   POMASS =   32.066; ZVAL   =    6.000    mass and valenz
   ENMAX  =  258.689; ENMIN  =  194.016 eV

  PAW_PBE Mo_sv 02Feb2006               :
  PAW_PBE S 06Sep2000                   :

 POSCAR: generated by phonopy
  positions in direct lattice
 exchange correlation table for  LEXCH =        8
   RHO(1)=    0.500       N(1)  =     2000
   RHO(2)=  100.500       N(2)  =     4000

 ion  position               nearest neighbor table
   1  0.222  0.111  0.250-  10 2.41  11 2.41  20 2.41  16 2.41  25 2.41  19 2.41   2 3.18   3 3.18
                             5 3.18   4 3.18   7 3.18   9 3.18
   2  0.556  0.111  0.250-  12 2.41  21 2.41  17 2.41  26 2.41  11 2.41  20 2.41   1 3.18   3 3.18
                             7 3.18   6 3.18   5 3.18   8 3.18
   3  0.889  0.111  0.250-  10 2.40  19 2.41  18 2.41  27 2.41  21 2.41  12 2.41   1 3.18   2 3.18
                             8 3.18   9 3.18   4 3.18   6 3.18
   4  0.222  0.444  0.250-  10 2.41  14 2.41  23 2.41  19 2.41  22 2.41  13 2.41   5 3.18   6 3.18
                             7 3.18   8 3.18   1 3.18   3 3.18
   5  0.556  0.444  0.250-  15 2.41  24 2.41  20 2.41  11 2.41  23 2.41  14 2.41   4 3.18   6 3.18
                             8 3.18   1 3.18   9 3.18   2 3.18
   6  0.889  0.444  0.250-  13 2.41  22 2.41  21 2.41  12 2.41  15 2.41  24 2.41   4 3.18   5 3.18
                             9 3.18   7 3.18   2 3.18   3 3.18
   7  0.222  0.778  0.250-  17 2.41  26 2.41  22 2.41  13 2.41  25 2.41  16 2.41   8 3.18   9 3.18
                             4 3.18   2 3.18   6 3.18   1 3.18
   8  0.556  0.778  0.250-  18 2.41  27 2.41  23 2.41  14 2.41  26 2.41  17 2.41   7 3.18   9 3.18
                             4 3.18   5 3.18   2 3.18   3 3.18
   9  0.889  0.778  0.250-  16 2.41  25 2.41  24 2.41  15 2.41  18 2.41  27 2.41   7 3.18   8 3.18
                             6 3.18   5 3.18   1 3.18   3 3.18
  10  0.111  0.222  0.354-   3 2.40   4 2.41   1 2.41
  11  0.444  0.222  0.354-   1 2.41   5 2.41   2 2.41
  12  0.778  0.222  0.354-   2 2.41   6 2.41   3 2.41
  13  0.111  0.556  0.354-   6 2.41   7 2.41   4 2.41
  14  0.444  0.556  0.354-   4 2.41   8 2.41   5 2.41
  15  0.778  0.556  0.354-   5 2.41   9 2.41   6 2.41
  16  0.111  0.889  0.354-   9 2.41   1 2.41   7 2.41
  17  0.444  0.889  0.354-   7 2.41   2 2.41   8 2.41
  18  0.778  0.889  0.354-   8 2.41   3 2.41   9 2.41
  19  0.111  0.222  0.146-   3 2.41   4 2.41   1 2.41
  20  0.444  0.222  0.146-   1 2.41   5 2.41   2 2.41
  21  0.778  0.222  0.146-   2 2.41   6 2.41   3 2.41
  22  0.111  0.556  0.146-   6 2.41   7 2.41   4 2.41
  23  0.444  0.556  0.146-   4 2.41   8 2.41   5 2.41
  24  0.778  0.556  0.146-   5 2.41   9 2.41   6 2.41
  25  0.111  0.889  0.146-   9 2.41   1 2.41   7 2.41
  26  0.444  0.889  0.146-   7 2.41   2 2.41   8 2.41
  27  0.778  0.889  0.146-   8 2.41   3 2.41   9 2.41

  LATTYP: Found a hexagonal cell.
 ALAT       =     9.5515814061
 C/A-ratio  =     1.5704205788

  Lattice vectors:

 A1 = (   9.5515814061,   0.0000000000,   0.0000000000)
 A2 = (  -4.7757907030,   8.2719121440,   0.0000000000)
 A3 = (   0.0000000000,   0.0000000000,  15.0000000000)

Analysis of symmetry for initial positions (statically):
 Subroutine PRICEL returns:
 Original cell was already a primitive cell.

 Routine SETGRP: Setting up the symmetry group for a
 hexagonal supercell.

 Subroutine GETGRP returns: Found  1 space group operations
 (whereof  1 operations were pure point group operations)
 out of a pool of 24 trial point group operations.

The static configuration has the point symmetry C_1 .

Analysis of symmetry for dynamics (positions and initial velocities):
 Subroutine PRICEL returns:
 Original cell was already a primitive cell.

 Routine SETGRP: Setting up the symmetry group for a
 hexagonal supercell.

 Subroutine GETGRP returns: Found  1 space group operations
 (whereof  1 operations were pure point group operations)
 out of a pool of 24 trial point group operations.

The dynamic configuration has the point symmetry C_1 .

 Subroutine INISYM returns: Found  1 space group operations
 (whereof  1 operations are pure point group operations),
 and found     1 'primitive' translations

 KPOINTS: K-Spacing Value to Generate K-Mesh: 0.04

Automatic generation of k-mesh.
Space group operators:
 irot       det(A)        alpha          n_x          n_y          n_z        tau_x        tau_y        tau_z
    1     1.000000     0.000001     1.000000     0.000000     0.000000     0.000000     0.000000     0.000000

 Subroutine IBZKPT returns following result:

 Found    216 irreducible k-points:

 Following reciprocal coordinates:
            Coordinates               Weight
  0.041667  0.041667  0.000000     16.000000
  0.083333 -0.041667  0.000000     16.000000
  0.041667 -0.083333  0.000000     16.000000
  0.125000  0.041667  0.000000     16.000000
  0.166667 -0.125000  0.000000     16.000000
  0.041667 -0.166667  0.000000     16.000000
 -0.041667 -0.125000  0.000000     16.000000
  0.125000 -0.166667  0.000000     16.000000
  0.166667 -0.041667  0.000000     16.000000
  0.208333  0.041667  0.000000     16.000000
  0.250000 -0.208333  0.000000     16.000000
  0.041667 -0.250000  0.000000     16.000000
 -0.041667 -0.208333  0.000000     16.000000
  0.208333 -0.250000  0.000000     16.000000
  0.250000 -0.041667  0.000000     16.000000
  0.291667  0.041667  0.000000     16.000000
  0.333333 -0.291667  0.000000     16.000000
  0.041667 -0.333333  0.000000     16.000000
 -0.041667 -0.291667  0.000000     16.000000
  0.291667 -0.333333  0.000000     16.000000
  0.333333 -0.041667  0.000000     16.000000
  0.375000  0.041667  0.000000     16.000000
  0.416667 -0.375000  0.000000     16.000000
  0.041667 -0.416667  0.000000     16.000000
 -0.041667 -0.375000  0.000000     16.000000
  0.375000 -0.416667  0.000000     16.000000
  0.416667 -0.041667  0.000000     16.000000
  0.458333  0.041667  0.000000     16.000000
  0.500000 -0.458333  0.000000     16.000000
  0.041667  0.500000  0.000000     16.000000
 -0.041667 -0.458333  0.000000     16.000000
  0.458333  0.500000  0.000000     16.000000
  0.500000 -0.041667  0.000000     16.000000
 -0.458333  0.041667  0.000000     16.000000
 -0.416667  0.458333  0.000000     16.000000
  0.041667  0.416667  0.000000     16.000000
 -0.041667  0.458333  0.000000     16.000000
 -0.458333  0.416667  0.000000     16.000000
 -0.416667 -0.041667  0.000000     16.000000
 -0.375000  0.041667  0.000000     16.000000
 -0.333333  0.375000  0.000000     16.000000
  0.041667  0.333333  0.000000     16.000000
 -0.041667  0.375000  0.000000     16.000000
 -0.375000  0.333333  0.000000     16.000000
 -0.333333 -0.041667  0.000000     16.000000
 -0.291667  0.041667  0.000000     16.000000
 -0.250000  0.291667  0.000000     16.000000
  0.041667  0.250000  0.000000     16.000000
 -0.041667  0.291667  0.000000     16.000000
 -0.291667  0.250000  0.000000     16.000000
 -0.250000 -0.041667  0.000000     16.000000
 -0.208333  0.041667  0.000000     16.000000
 -0.166667  0.208333  0.000000     16.000000
  0.041667  0.166667  0.000000     16.000000
 -0.041667  0.208333  0.000000     16.000000
 -0.208333  0.166667  0.000000     16.000000
 -0.166667 -0.041667  0.000000     16.000000
 -0.125000  0.041667  0.000000     16.000000
 -0.083333  0.125000  0.000000     16.000000
  0.041667  0.083333  0.000000     16.000000
[...]
 -0.458333  0.375000  0.000000     16.000000
 -0.083333  0.458333  0.000000     16.000000
  0.375000  0.083333  0.000000     16.000000
 -0.375000  0.458333  0.000000     16.000000
 -0.458333  0.083333  0.000000     16.000000
 -0.083333 -0.375000  0.000000     16.000000
 -0.375000  0.375000  0.000000     16.000000
  0.000000  0.375000  0.000000     16.000000
  0.375000  0.000000  0.000000     16.000000
  0.458333  0.458333  0.000000     16.000000
 -0.083333 -0.458333  0.000000     16.000000
  0.458333  0.083333  0.000000     16.000000
 -0.458333  0.458333  0.000000     16.000000
  0.000000  0.458333  0.000000     16.000000
  0.458333  0.000000  0.000000     16.000000

 Following cartesian coordinates:
            Coordinates               Weight
  0.004362  0.007556  0.000000     16.000000
  0.008725  0.000000  0.000000     16.000000
  0.004362 -0.007556  0.000000     16.000000
  0.013087  0.012593  0.000000     16.000000
  0.017449 -0.005037  0.000000     16.000000
  0.004362 -0.017630  0.000000     16.000000
 -0.004362 -0.017630  0.000000     16.000000
  0.013087 -0.012593  0.000000     16.000000
  0.017449  0.005037  0.000000     16.000000
  0.021811  0.017630  0.000000     16.000000
  0.026174 -0.010074  0.000000     16.000000
  0.004362 -0.027704  0.000000     16.000000
 -0.004362 -0.027704  0.000000     16.000000
  0.021811 -0.017630  0.000000     16.000000
  0.026174  0.010074  0.000000     16.000000
  0.030536  0.022667  0.000000     16.000000
  0.034898 -0.015111  0.000000     16.000000
  0.004362 -0.037778  0.000000     16.000000
 -0.004362 -0.037778  0.000000     16.000000
  0.030536 -0.022667  0.000000     16.000000
  0.034898  0.015111  0.000000     16.000000
  0.039261  0.027704  0.000000     16.000000
  0.043623 -0.020149  0.000000     16.000000
  0.004362 -0.047853  0.000000     16.000000
 -0.004362 -0.047853  0.000000     16.000000
  0.039261 -0.027704  0.000000     16.000000
  0.043623  0.020149  0.000000     16.000000
  0.047985  0.032741  0.000000     16.000000
  0.052347 -0.025186  0.000000     16.000000
  0.004362  0.062964  0.000000     16.000000
 -0.004362 -0.057927  0.000000     16.000000
  0.047985  0.088150  0.000000     16.000000
  0.052347  0.025186  0.000000     16.000000
 -0.047985 -0.022667  0.000000     16.000000
 -0.043623  0.030223  0.000000     16.000000
  0.004362  0.052890  0.000000     16.000000
 -0.004362  0.052890  0.000000     16.000000
 -0.047985  0.022667  0.000000     16.000000
 -0.043623 -0.030223  0.000000     16.000000
 -0.039261 -0.017630  0.000000     16.000000
 -0.034898  0.025186  0.000000     16.000000
  0.004362  0.042816  0.000000     16.000000
 -0.004362  0.042816  0.000000     16.000000
 -0.039261  0.017630  0.000000     16.000000
 -0.034898 -0.025186  0.000000     16.000000
 -0.030536 -0.012593  0.000000     16.000000
 -0.026174  0.020149  0.000000     16.000000
  0.004362  0.032741  0.000000     16.000000
 -0.004362  0.032741  0.000000     16.000000
 -0.030536  0.012593  0.000000     16.000000
 -0.026174 -0.020149  0.000000     16.000000
 -0.021811 -0.007556  0.000000     16.000000
 -0.017449  0.015111  0.000000     16.000000
  0.004362  0.022667  0.000000     16.000000
 -0.004362  0.022667  0.000000     16.000000
 -0.021811  0.007556  0.000000     16.000000
[...]
  -Hartree energ DENC   =    -44149.99493471
  -exchange      EXHF   =         0.00000000
  -V(xc)+E(xc)   XCENC  =       822.29027760
  PAW double counting   =     17395.10119161   -17171.31696658
  entropy T*S    EENTRO =        -0.05730060
  eigenvalues    EBANDS =     -1774.70631533
  atomic energy  EATOM  =     21743.29182934
  Solvation  Ediel_sol  =         0.00000000
  free energy    TOTEN  =      1986.29367822 eV

  energy without entropy =     1986.35097882  energy(sigma->0) =     1986.32232852

[...]

 eigenvalue-minimisations  : 77560
 total energy-change (2. order) :-0.2016178E+04  (-0.1973785E+04)
 number of electron     234.0000000 magnetization
 augmentation part      234.0000000 magnetization

[...]

 Broyden mixing:
  rms(total) = 0.70607E+01    rms(broyden)= 0.70607E+01
  rms(prec ) = 0.72259E+01
  weight for this iteration     100.00

[...]

 eigenvalues of (default mixing * dielectric matrix)
  average eigenvalue GAMMA=   1.0876
  1.0876

[...]

 eigenvalue-minimisations  : 70504
 total energy-change (2. order) : 0.6645873E-03  (-0.1221990E-03)
 number of electron     234.0000020 magnetization
 augmentation part        7.0675251 magnetization

[...]

 Broyden mixing:
  rms(total) = 0.23803E-05    rms(broyden)= 0.23803E-05
  rms(prec ) = 0.24894E-05
  weight for this iteration     100.00

 eigenvalues of (default mixing * dielectric matrix)
  average eigenvalue GAMMA=   1.6381
  8.6281  4.8694  3.0769  2.4529  2.3234  2.3234  1.7344  1.6001  1.6001  1.0781
  1.0781  0.8618  0.8618  0.6723  0.6723  0.8081  0.8081  0.7981  0.7981  0.5140
  0.4559  0.4540  0.4279  0.4177

[...]

--------------------------------------- Iteration      1(  30)  ---------------------------------------

 eigenvalue-minimisations  : 38632
 total energy-change (2. order) :-0.4376489E-08  (-0.2329191E-11)
 number of electron     234.0000020 magnetization
 augmentation part        7.0635358 magnetization

 Free energy of the ion-electron system (eV)
  alpha Z        PSCENC =       323.32137470
  Ewald energy   TEWEN  =     24798.36452220
  -Hartree energ DENC   =    -44101.53056912
  -exchange      EXHF   =         0.00000000
  -V(xc)+E(xc)   XCENC  =       817.19725752
  PAW double counting   =     26326.85731961   -26137.64209045
  entropy T*S    EENTRO =        -0.00000000
  eigenvalues    EBANDS =     -3966.47800178
  atomic energy  EATOM  =     21743.29182934
  Solvation  Ediel_sol  =         0.00000000
  free energy    TOTEN  =      -196.61835798 eV

  energy without entropy =     -196.61835798  energy(sigma->0) =     -196.61835798

 average (electrostatic) potential at core
  the test charge radii are     1.0818  0.9698
  (the norm of the test charge is              1.0000)
       1 -82.3511       2 -82.3521       3 -82.3499       4 -82.3505       5 -82.3523
       6 -82.3525       7 -82.3521       8 -82.3522       9 -82.3524      10 -92.0190
      11 -92.0134      12 -92.0146      13 -92.0143      14 -92.0136      15 -92.0146
      16 -92.0137      17 -92.0147      18 -92.0142      19 -92.0147      20 -92.0148
      21 -92.0143      22 -92.0147      23 -92.0143      24 -92.0149      25 -92.0149
      26 -92.0146      27 -92.0141

 E-fermi :  -0.2442     XC(G=0):  -5.0820     alpha+bet : -5.4812

 k-point     1 :       0.0417    0.0417    0.0000
  band No.  band energies     occupation
      1     -61.6039      2.00000
      2     -61.5786      2.00000
      3     -61.5781      2.00000
      4     -61.5763      2.00000
      5     -61.5758      2.00000
      6     -61.5743      2.00000
      7     -61.5738      2.00000
      8     -61.5623      2.00000
      9     -61.5622      2.00000
     10     -35.8378      2.00000
     11     -35.8374      2.00000
     12     -35.8224      2.00000
     13     -35.8214      2.00000
     14     -35.8180      2.00000
     15     -35.8175      2.00000
     16     -35.7968      2.00000
     17     -35.7964      2.00000
     18     -35.7694      2.00000
     19     -35.7690      2.00000
     20     -35.7429      2.00000
     21     -35.6922      2.00000
     22     -35.6919      2.00000
     23     -35.6876      2.00000
     24     -35.6874      2.00000
     25     -35.6837      2.00000
     26     -35.6835      2.00000
     27     -35.6601      2.00000
     28     -35.6599      2.00000
     29     -35.6090      2.00000
     30     -35.6085      2.00000
     31     -35.6053      2.00000
     32     -35.6051      2.00000
     33     -35.5993      2.00000
     34     -35.5988      2.00000
     35     -35.5416      2.00000
     36     -35.5399      2.00000
     37     -14.7984      2.00000
     38     -13.6222      2.00000
     39     -13.6192      2.00000
     40     -13.5014      2.00000
     41     -13.4992      2.00000
     42     -13.4963      2.00000
     43     -13.3896      2.00000
     44     -13.3869      2.00000
     45     -13.0236      2.00000
     46     -13.0222      2.00000
     47     -12.9743      2.00000
     48     -12.9735      2.00000
     49     -12.9324      2.00000
     50     -12.9309      2.00000
     51     -12.6864      2.00000
     52     -12.6832      2.00000
     53     -12.6092      2.00000
     54     -12.6074      2.00000
     55      -6.3292      2.00000
     56      -6.1111      2.00000
     57      -6.1094      2.00000
     58      -6.0561      2.00000
     59      -6.0538      2.00000
     60      -5.9518      2.00000
[...]
    126       1.5649      0.00000
    127       1.5676      0.00000
    128       1.6320      0.00000
    129       1.6328      0.00000
    130       1.6736      0.00000
    131       1.6756      0.00000
    132       2.0103      0.00000
    133       2.0382      0.00000
    134       2.2444      0.00000
    135       2.2622      0.00000
    136       2.3415      0.00000
    137       2.3443      0.00000
    138       2.5343      0.00000
    139       2.5366      0.00000
    140       2.6361      0.00000

[...]

 k-point   216 :       0.4583    0.0000    0.0000
  band No.  band energies     occupation
      1     -61.5962      2.00000
      2     -61.5933      2.00000
      3     -61.5809      2.00000
      4     -61.5807      2.00000
      5     -61.5677      2.00000
      6     -61.5676      2.00000
      7     -61.5669      2.00000
      8     -61.5661      2.00000
      9     -61.5658      2.00000
     10     -35.9075      2.00000
     11     -35.8626      2.00000
     12     -35.8620      2.00000
     13     -35.8613      2.00000
     14     -35.8609      2.00000
     15     -35.7558      2.00000
     16     -35.7554      2.00000
     17     -35.7276      2.00000
     18     -35.7220      2.00000
     19     -35.6970      2.00000
     20     -35.6969      2.00000
     21     -35.6823      2.00000
     22     -35.6820      2.00000
     23     -35.6706      2.00000
     24     -35.6705      2.00000
     25     -35.6692      2.00000
     26     -35.6678      2.00000
     27     -35.6676      2.00000
     28     -35.6639      2.00000
     29     -35.6636      2.00000
     30     -35.6481      2.00000
     31     -35.6248      2.00000
     32     -35.6199      2.00000
     33     -35.6109      2.00000
     34     -35.6105      2.00000
     35     -35.5643      2.00000
     36     -35.5578      2.00000
     37     -14.4742      2.00000
     38     -14.3506      2.00000
     39     -13.7543      2.00000
     40     -13.7511      2.00000
     41     -13.3679      2.00000
     42     -13.3173      2.00000
     43     -13.0716      2.00000
     44     -13.0707      2.00000
     45     -13.0095      2.00000
     46     -13.0062      2.00000
     47     -12.9482      2.00000
     48     -12.9242      2.00000
     49     -12.9213      2.00000
     50     -12.7680      2.00000
     51     -12.7660      2.00000
     52     -12.7643      2.00000
     53     -12.7278      2.00000
     54     -12.7263      2.00000
     55      -6.4835      2.00000
     56      -6.0542      2.00000
     57      -6.0533      2.00000
     58      -5.9904      2.00000
     59      -5.9894      2.00000
     60      -5.9821      2.00000
[...]
    126       1.6247      0.00000
    127       1.7389      0.00000
    128       1.7405      0.00000
    129       1.8255      0.00000
    130       1.8403      0.00000
    131       1.8733      0.00000
    132       1.9378      0.00000
    133       1.9508      0.00000
    134       1.9519      0.00000
    135       1.9887      0.00000
    136       1.9894      0.00000
    137       2.0142      0.00000
    138       2.1312      0.00000
    139       2.1318      0.00000
    140       2.5403      0.00000

 soft charge-density along one line, spin component           1
         0         1         2         3         4         5         6         7         8         9
 total charge-density along one line

------------------------ aborting loop because EDIFF is reached ----------------------------------------

  FORCE on cell =-STRESS in cart. coord.  units (eV):
  Direction    XX          YY          ZZ          XY          YZ          ZX
  Alpha Z   323.32137   323.32137   323.32137
  Ewald   37451.34162 37451.34428-50104.36166     0.75973     0.00343     0.53985
  Hartree 41897.72161 41897.72325-39693.91414     0.27453     0.00090     0.15830
  E(xc)    -986.74321  -986.74322  -988.76610     0.00153     0.00000     0.00119
  Local  -83474.29635-83474.30087 85607.20459    -1.01815    -0.00415    -0.70747
  n-local  1069.75278  1069.75295  1118.13090     0.02355     0.00021     0.04236
  augment    -4.77661    -4.77652   -15.15734     0.00054    -0.00004    -0.00156
  Kinetic  3723.74315  3723.74312  3753.57135    -0.02465    -0.00004     0.04385
  Fock        0.00000     0.00000     0.00000     0.00000     0.00000     0.00000
  Total       0.06437     0.06436     0.02897     0.01708     0.00032     0.07652
  in kB       0.08702     0.08701     0.03916     0.02309     0.00044     0.10345

 VOLUME and BASIS-vectors are now :
  energy-cutoff  :      500.00
  volume of cell :     1185.15
      direct lattice vectors                 reciprocal lattice vectors
     9.551581406  0.000000000  0.000000000     0.104694705  0.060445516  0.000000000
    -4.775790703  8.271912144  0.000000000     0.000000000  0.120891033  0.000000000
     0.000000000  0.000000000 15.000000000     0.000000000  0.000000000  0.066666667

  length of vectors
     9.551581406  9.551581406 15.000000000     0.120891033  0.120891033  0.066666667

 FORCES acting on ions
    electron-ion (+dipol)            ewald-force                    non-local-force                 convergence-correction
   -.736E+00 0.176E+00 -.437E+00   0.739E+00 -.182E+00 0.421E+00   -.171E-02 -.519E-03 -.644E-02   -.108E-06 0.336E-05 -.468E-06
   0.165E+00 0.152E-01 -.113E+00   -.165E+00 -.159E-01 0.111E+00   -.608E-03 0.112E-02 0.874E-03   -.169E-05 0.154E-05 -.510E-06
   0.109E+01 0.881E+00 0.742E+00   -.111E+01 -.888E+00 -.760E+00   -.280E-01 -.149E-01 -.365E-01   0.193E-05 -.172E-05 -.521E-06
   -.433E+00 -.105E+01 0.150E+00   0.426E+00 0.107E+01 -.168E+00   -.240E-02 0.148E-01 -.214E-01   0.509E-05 0.445E-06 -.557E-06
   0.796E-02 0.315E-01 -.201E+00   -.751E-02 -.325E-01 0.201E+00   0.745E-04 -.566E-03 -.435E-03   -.265E-05 0.210E-05 -.618E-06
   0.258E+00 -.176E+00 -.425E-01   -.260E+00 0.179E+00 0.396E-01   0.131E-02 -.105E-02 0.243E-03   -.237E-05 0.696E-06 -.568E-06
   0.903E-02 -.897E-01 -.122E+00   -.871E-02 0.899E-01 0.119E+00   -.924E-03 0.219E-03 0.704E-03   0.890E-06 -.409E-06 -.561E-06
   0.352E-01 0.748E-01 -.104E+00   -.361E-01 -.743E-01 0.102E+00   0.939E-03 -.491E-03 0.105E-02   0.297E-05 -.445E-05 -.773E-06
   -.470E-01 0.144E+00 -.122E+00   0.492E-01 -.146E+00 0.120E+00   0.271E-03 0.127E-02 -.967E-04   -.392E-05 -.152E-05 -.662E-06
   -.820E+00 -.227E-02 -.833E+03   0.820E+00 0.221E-02 0.837E+03   0.608E-01 0.266E-03 -.450E+01   0.129E-05 0.754E-07 0.117E-05
   0.195E+00 0.125E-03 -.834E+03   -.199E+00 -.201E-05 0.838E+03   -.961E-03 0.351E-03 -.459E+01   -.216E-05 0.971E-06 0.266E-05
   0.197E+00 0.278E-03 -.834E+03   -.199E+00 -.201E-05 0.838E+03   -.185E-02 -.187E-03 -.459E+01   0.883E-06 0.293E-06 0.323E-05
   -.325E-02 -.116E+00 -.834E+03   0.365E-02 0.116E+00 0.838E+03   -.728E-03 0.499E-03 -.459E+01   0.895E-06 -.163E-06 0.244E-05
   -.319E-02 0.114E+00 -.834E+03   0.278E-02 -.117E+00 0.838E+03   -.239E-03 -.341E-04 -.459E+01   0.371E-06 -.126E-05 0.153E-05
   0.369E-01 -.891E-04 -.834E+03   -.370E-01 0.849E-04 0.838E+03   0.376E-03 -.125E-03 -.459E+01   -.126E-05 -.228E-06 0.243E-05
   -.307E-02 -.115E+00 -.834E+03   0.278E-02 0.117E+00 0.838E+03   -.794E-03 0.231E-03 -.459E+01   -.109E-06 0.130E-05 0.300E-05
   0.371E-01 0.933E-04 -.834E+03   -.370E-01 -.889E-04 0.838E+03   0.208E-03 0.734E-04 -.459E+01   -.326E-06 -.961E-06 0.445E-05
   -.244E-02 0.116E+00 -.834E+03   0.365E-02 -.116E+00 0.838E+03   -.110E-02 -.830E-03 -.459E+01   0.469E-06 -.277E-07 0.256E-05
   -.773E-01 -.275E-05 0.834E+03   0.787E-01 -.201E-05 -.839E+03   0.163E-03 0.120E-04 0.459E+01   0.133E-05 0.597E-07 -.982E-06
   -.260E-01 -.733E-03 0.834E+03   0.273E-01 -.201E-05 -.838E+03   -.616E-03 0.128E-02 0.459E+01   -.220E-05 0.983E-06 -.270E-05
   0.902E-01 -.131E-02 0.834E+03   -.915E-01 -.201E-05 -.838E+03   -.118E-02 0.323E-02 0.459E+01   0.894E-06 0.264E-06 -.319E-05
   0.222E-01 -.716E-01 0.834E+03   -.230E-01 0.738E-01 -.838E+03   -.281E-03 -.136E-02 0.459E+01   0.973E-06 -.136E-06 -.240E-05
   -.377E-01 -.280E-01 0.834E+03   0.363E-01 0.291E-01 -.838E+03   0.382E-02 -.614E-03 0.459E+01   0.352E-06 -.121E-05 -.164E-05
   0.149E-01 -.341E-04 0.834E+03   -.149E-01 0.295E-04 -.838E+03   -.110E-03 -.123E-03 0.459E+01   -.132E-05 -.218E-06 -.234E-05
   -.351E-01 0.271E-01 0.834E+03   0.363E-01 -.291E-01 -.838E+03   -.859E-03 0.172E-02 0.459E+01   -.130E-06 0.135E-05 -.299E-05
   0.148E-01 0.379E-04 0.834E+03   -.149E-01 -.336E-04 -.838E+03   -.441E-04 0.735E-04 0.459E+01   -.287E-06 -.101E-05 -.438E-05
   0.212E-01 0.746E-01 0.834E+03   -.230E-01 -.738E-01 -.838E+03   0.277E-02 -.425E-02 0.459E+01   0.453E-06 -.625E-07 -.267E-05
   -.284E-01 -.159E-03 -.282E-01   0.405E-14 -.463E-13 -.114E-12   0.284E-01 0.156E-03 0.282E-01   0.268E-06 0.435E-07 -.507E-05

 POSITION                                       TOTAL-FORCE (eV/Angst)
      1.59193      0.91910      3.75000         0.001213     -0.005899     -0.022579
      4.77579      0.91910      3.75000        -0.000708      0.000403     -0.001486
      7.95965      0.91910      3.75000        -0.046933     -0.022116     -0.055264
      0.00000      3.67641      3.75000        -0.008816      0.027313     -0.038757
      3.18386      3.67641      3.75000         0.000523     -0.001557     -0.000937
      6.36772      3.67641      3.75000        -0.001069      0.001567     -0.002608
     -1.59193      6.43371      3.75000        -0.000599      0.000484     -0.001513
      1.59193      6.43371      3.75000         0.000036     -0.000007     -0.001461
      4.77579      6.43371      3.75000         0.002433     -0.000346     -0.001769
     -0.00537      1.83820      5.30385         0.060160      0.000201      0.120194
      3.18386      1.83820      5.31228        -0.004250      0.000476      0.004044
      6.36772      1.83820      5.31228        -0.002872      0.000090      0.003027
     -1.59193      4.59551      5.31228        -0.000335      0.001101      0.003234
      1.59193      4.59551      5.31228        -0.000653     -0.002824      0.003991
      4.77579      4.59551      5.31228         0.000287     -0.000129     -0.000172
     -3.18386      7.35281      5.31228        -0.001093      0.002175      0.003765
     -0.00000      7.35281      5.31228         0.000284      0.000077     -0.000104
      3.18386      7.35281      5.31228         0.000102     -0.000981      0.003505
     -0.00000      1.83820      2.18772         0.001552      0.000007     -0.015027
      3.18386      1.83820      2.18772         0.000704      0.000551      0.000708
      6.36772      1.83820      2.18772        -0.002461      0.001916     -0.001187
     -1.59193      4.59551      2.18772        -0.001134      0.000859     -0.000125
      1.59193      4.59551      2.18772         0.002495      0.000441     -0.000490
      4.77579      4.59551      2.18772        -0.000106     -0.000128      0.000878
     -3.18386      7.35281      2.18772         0.000396     -0.000287      0.000792
     -0.00000      7.35281      2.18772        -0.000106      0.000077      0.000811
      3.18386      7.35281      2.18772         0.000950     -0.003461     -0.001468
    total drift:                                0.000034     -0.000002     -0.000007

  FREE ENERGIE OF THE ION-ELECTRON SYSTEM (eV)
  free  energy   TOTEN  =      -196.61835798 eV

  energy  without entropy=     -196.61835798  energy(sigma->0) =     -196.61835798