 vasp.5.4.4.18Apr17-6-g9f103f2a35 (build Apr 28 2023 10:04:10) complex

 executed on             LinuxIFC date 2023.11.23  16:01:55

 INCAR:
 POTCAR:    PAW_PBE Mo_sv 02Feb2006
 POTCAR:    PAW_PBE S 06Sep2000

 POTCAR:    PAW_PBE Mo_sv 02Feb2006
   VRHFIN =Mo: 4p5s4d

   TITEL  = PAW_PBE Mo_sv 02Feb2006
   POMASS =   95.940; ZVAL   =   14.000    mass and valenz
   ENMAX  =  242.676; ENMIN  =  182.007 eV

 POTCAR:    PAW_PBE S 06Sep2000
   VRHFIN =S : s2p4

   TITEL  = PAW_PBE S 06Sep2000
   POMASS =   32.066; ZVAL   =    6.000    mass and valenz
   ENMAX  =  258.689; ENMIN  =  194.016 eV

  PAW_PBE Mo_sv 02Feb2006               :
  PAW_PBE S 06Sep2000                   :

 POSCAR: Mo2 S4
  positions in direct lattice
  velocities in cartesian coordinates
 exchange correlation table for  LEXCH =        8
   RHO(1)=    0.500       N(1)  =     2000
   RHO(2)=  100.500       N(2)  =     4000

 ion  position               nearest neighbor table
   1  0.667  0.333  0.250-   2 2.41   3 2.41   2 2.41   3 2.41   2 2.41   3 2.41
   2  0.333  0.667  0.354-   1 2.41   1 2.41   1 2.41
   3  0.333  0.667  0.146-   1 2.41   1 2.41   1 2.41

  LATTYP: Found a hexagonal cell.
 ALAT       =     3.1838604687
 C/A-ratio  =     4.7112617363

  Lattice vectors:

 A1 = (   3.1838604687,   0.0000000000,   0.0000000000)
 A2 = (  -1.5919302343,   2.7573040480,   0.0000000000)
 A3 = (   0.0000000000,   0.0000000000,  15.0000000000)

Analysis of symmetry for initial positions (statically):
 Subroutine PRICEL returns:
 Original cell was already a primitive cell.

 Routine SETGRP: Setting up the symmetry group for a
 hexagonal supercell.

 Subroutine GETGRP returns: Found 12 space group operations
 (whereof  6 operations were pure point group operations)
 out of a pool of 24 trial point group operations.

The static configuration has the point symmetry C_3v.
 The point group associated with its full space group is D_3h.

Analysis of symmetry for dynamics (positions and initial velocities):
 Subroutine PRICEL returns:
 Original cell was already a primitive cell.

 Routine SETGRP: Setting up the symmetry group for a
 hexagonal supercell.

 Subroutine GETGRP returns: Found 12 space group operations
 (whereof  6 operations were pure point group operations)
 out of a pool of 24 trial point group operations.

The dynamic configuration has the point symmetry C_3v.
 The point group associated with its full space group is D_3h.

 Subroutine INISYM returns: Found 12 space group operations
 (whereof  6 operations are pure point group operations),
 and found     1 'primitive' translations

 KPOINTS: K-Path Generated by VASPKIT.
  interpolating k-points between supplied coordinates
  k-points in reciprocal lattice
Space group operators:
 irot       det(A)        alpha          n_x          n_y          n_z        tau_x        tau_y        tau_z
    1     1.000000     0.000000     1.000000     0.000000     0.000000     0.000000     0.000000     0.000000
    2     1.000000   120.000000     0.000000     0.000000    -1.000000     0.000000     0.000000     0.000000
    3     1.000000   120.000000     0.000000     0.000000     1.000000     0.000000     0.000000     0.000000
    4    -1.000000   180.000000     1.000000     0.000000     0.000000     0.000000     0.000000     0.000000
    5    -1.000000   180.000000     0.500000    -0.866025     0.000000     0.000000     0.000000     0.000000
    6    -1.000000   180.000000    -0.500000    -0.866025     0.000000     0.000000     0.000000     0.000000
    7    -1.000000    60.000000     0.000000     0.000000    -1.000000     0.000000     0.000000     0.500000
    8    -1.000000   180.000000     0.000000     0.000000     1.000000     0.000000     0.000000     0.500000
    9    -1.000000    60.000000     0.000000     0.000000     1.000000     0.000000     0.000000     0.500000
   10     1.000000   180.000000     0.866025    -0.500000     0.000000     0.000000     0.000000     0.500000
   11     1.000000   180.000000     0.000000     1.000000     0.000000     0.000000     0.000000     0.500000
   12     1.000000   180.000000     0.866025     0.500000     0.000000     0.000000     0.000000     0.500000

 SYSTEM =  unknown system
 POSCAR =  Mo2 S4

 Startparameter for this run:
   NWRITE =      2    write-flag & timer
   PREC   = normal    normal or accurate (medium, high low for compatibility)
   ISTART =      1    job   : 0-new  1-cont  2-samecut
   ICHARG =     11    charge: 1-file 2-atom 10-const
   ISPIN  =      1    spin polarized calculation?
   LNONCOLLINEAR =      F non collinear calculations
   LSORBIT =      F    spin-orbit coupling
   INIWAV =      1    electr: 0-lowe 1-rand  2-diag
   LASPH  =      F    aspherical Exc in radial PAW
   METAGGA=      F    non-selfconsistent MetaGGA calc.

 Electronic Relaxation 1
   ENCUT  =  258.7 eV  19.01 Ry    4.36 a.u.   4.18  4.18 19.67*2*pi/ulx,y,z
   ENINI  =  258.7     initial cutoff
   ENAUG  =  446.0 eV  augmentation charge cutoff
   NELM   =     60;   NELMIN=  2; NELMDL=  0     # of ELM steps
   EDIFF  = 0.1E-07   stopping-criterion for ELM
   LREAL  =      F    real-space projection
   NLSPLINE    = F    spline interpolate recip. space projectors
   LCOMPAT=      F    compatible to vasp.4.4
   GGA_COMPAT  = T    GGA compatible to vasp.4.4-vasp.4.6
   LMAXPAW     = -100 max onsite density
   LMAXMIX     =    2 max onsite mixed and CHGCAR
   VOSKOWN=      0    Vosko Wilk Nusair interpolation
   ROPT   =    0.00000   0.00000
 Ionic relaxation
   EDIFFG = 0.1E-06   stopping-criterion for IOM
   NSW    =      0    number of steps for IOM
   NBLOCK =      1;   KBLOCK =      1    inner block; outer block
   IBRION =     -1    ionic relax: 0-MD 1-quasi-New 2-CG
   NFREE  =      0    steps in history (QN), initial steepest desc. (CG)
   ISIF   =      2    stress and relaxation
   IWAVPR =     10    prediction:  0-non 1-charg 2-wave 3-comb
   ISYM   =      2    0-nonsym 1-usesym 2-fastsym
   LCORR  =      T    Harris-Foulkes like correction to forces

   POTIM  = 0.5000    time-step for ionic-motion
   TEIN   =    0.0    initial temperature
   TEBEG  =    0.0;   TEEND  =   0.0 temperature during run
   SMASS  =  -3.00    Nose mass-parameter (am)
   estimated Nose-frequenzy (Omega)   =  0.10E-29 period in steps =****** mass=  -0.232E-27a.u.
   SCALEE = 1.0000    scale energy and forces
   NPACO  =    256;   APACO  = 16.0  distance and # of slots for P.C.
   PSTRESS=    0.0 pullay stress

  Mass of Ions in am
   POMASS =  95.94 32.07
  Ionic Valenz
   ZVAL   =  14.00  6.00
  Atomic Wigner-Seitz radii
  virtual crystal weights
   VCA    =   1.00  1.00
   NELECT =      26.0000    total number of electrons
   NUPDOWN=      -1.0000    fix difference up-down

 DOS related values:
   EMIN   = -11.00;   EMAX   =  9.00  energy-range for DOS
   EFERMI =   0.00
   ISMEAR =     0;   SIGMA  =   0.05  broadening in eV -4-tet -1-fermi 0-gaus

 Electronic relaxation 2 (details)
   IALGO  =     38    algorithm
   LDIAG  =      T    sub-space diagonalisation (order eigenvalues)
   LSUBROT=      F    optimize rotation matrix (better conditioning)
   TURBO    =      0    0=normal 1=particle mesh
   IRESTART =      0    0=no restart 2=restart with 2 vectors
   NREBOOT  =      0    no. of reboots
   NMIN     =      0    reboot dimension
   EREF     =   0.00    reference energy to select bands
   IMIX   =      4    mixing-type and parameters
     AMIX     =   0.40;   BMIX     =  1.00
     AMIX_MAG =   1.60;   BMIX_MAG =  1.00
     AMIN     =   0.10
     WC   =   100.;   INIMIX=   1;  MIXPRE=   1;  MAXMIX= -45

 Intra band minimization:
   WEIMIN = 0.0000     energy-eigenvalue tresh-hold
   EBREAK =  0.10E-09  absolut break condition
   DEPER  =   0.30     relativ break condition

   TIME   =   0.40     timestep for ELM

  volume/ion in A,a.u.               =      43.89       296.21
  Fermi-wavevector in a.u.,A,eV,Ry     =   0.953285  1.801447 12.364318  0.908752
  Thomas-Fermi vector in A             =   2.081926

 Write flags
   LWAVE        =      T    write WAVECAR
   LDOWNSAMPLE  =      F    k-point downsampling of WAVECAR
   LCHARG       =      T    write CHGCAR
   LVTOT        =      F    write LOCPOT, total local potential
   LVHAR        =      F    write LOCPOT, Hartree potential only
   LELF         =      F    write electronic localiz. function (ELF)
   LORBIT       =     11    0 simple, 1 ext, 2 COOP (PROOUT), +10 PAW based schemes

 Dipole corrections
   LMONO  =      F    monopole corrections only (constant potential shift)
   LDIPOL =      F    correct potential (dipole corrections)
   IDIPOL =      0    1-x, 2-y, 3-z, 4-all directions
   EPSILON=  1.0000000 bulk dielectric constant

 Exchange correlation treatment:
   GGA     =    --    GGA type
   VOSKOWN=      0    Vosko Wilk Nusair interpolation
   LHFCALC =     F    Hartree Fock is set to
   LHFONE  =     F    Hartree Fock one center treatment
   AEXX    =    0.0000 exact exchange contribution

 Linear response parameters
   LEPSILON=     F    determine dielectric tensor
   LRPA    =     F    only Hartree local field effects (RPA)
   LNABLA  =     F    use nabla operator in PAW spheres
   LVEL    =     F    velocity operator in full k-point grid
   LINTERFAST=   F  fast interpolation
   KINTER  =     0    interpolate to denser k-point grid
   CSHIFT  =0.1000    complex shift for real part using Kramers Kronig
   OMEGAMAX=  -1.0    maximum frequency
   DEG_THRESHOLD= 0.2000000E-02 threshold for treating states as degnerate
   RTIME   =   -0.100 relaxation time in fs
  (WPLASMAI=    0.000 imaginary part of plasma frequency in eV, 0.658/RTIME)
   DFIELD  = 0.0000000 0.0000000 0.0000000 field for delta impulse in time

 Orbital magnetization related:
   ORBITALMAG=     F  switch on orbital magnetization
   LCHIMAG   =     F  perturbation theory with respect to B field
   DQ        =  0.001000  dq finite difference perturbation B field
   LLRAUG    =     F  two centre corrections for induced B field

 Static calculation
 charge density and potential remain constant during run
 non-spin polarized calculation
 Variant of blocked Davidson
 Davidson routine will perform the subspace rotation
 perform sub-space diagonalisation
    after iterative eigenvector-optimisation
 no mixing
 using additional bands           11
 reciprocal scheme for non local part
 use partial core corrections
 calculate Harris-corrections to forces
   (improved forces if not selfconsistent)
 use gradient corrections
 WARNING: stress and forces are not correct
  (second derivative of E(xc) not defined)
 use of overlap-Matrix (Vanderbilt PP)
 Gauss-broadening in eV      SIGMA  =   0.05

  energy-cutoff  :      258.69
  volume of cell :      131.68
      direct lattice vectors                 reciprocal lattice vectors
     3.183860469  0.000000000  0.000000000     0.314084116  0.181336549  0.000000000
    -1.591930234  2.757304048  0.000000000     0.000000000  0.362673098  0.000000000
     0.000000000  0.000000000 15.000000000     0.000000000  0.000000000  0.066666667

  length of vectors
     3.183860469  3.183860469 15.000000000     0.362673098  0.362673098  0.066666667

 old parameters found on file WAVECAR:
[...]
   0.13224594  0.13361640  0.00000000       0.017
   0.12949082  0.13838842  0.00000000       0.017
   0.12673570  0.14316043  0.00000000       0.017
   0.12398057  0.14793245  0.00000000       0.017
   0.12122545  0.15270446  0.00000000       0.017
   0.11847032  0.15747648  0.00000000       0.017
   0.11571520  0.16224849  0.00000000       0.017
   0.11296008  0.16702051  0.00000000       0.017
   0.11020495  0.17179252  0.00000000       0.017
   0.10744983  0.17656453  0.00000000       0.017
   0.10469471  0.18133655  0.00000000       0.017
   0.10469471  0.18133655  0.00000000       0.017
   0.09918446  0.17179252  0.00000000       0.017
   0.09367421  0.16224849  0.00000000       0.017
   0.08816396  0.15270446  0.00000000       0.017
   0.08265371  0.14316043  0.00000000       0.017
   0.07714347  0.13361640  0.00000000       0.017
   0.07163322  0.12407238  0.00000000       0.017
   0.06612297  0.11452835  0.00000000       0.017
   0.06061272  0.10498432  0.00000000       0.017
   0.05510248  0.09544029  0.00000000       0.017
   0.04959223  0.08589626  0.00000000       0.017
   0.04408198  0.07635223  0.00000000       0.017
   0.03857173  0.06680820  0.00000000       0.017
   0.03306149  0.05726417  0.00000000       0.017
   0.02755124  0.04772014  0.00000000       0.017
   0.02204099  0.03817612  0.00000000       0.017
   0.01653074  0.02863209  0.00000000       0.017
   0.01102050  0.01908806  0.00000000       0.017
   0.00551025  0.00954403  0.00000000       0.017
   0.00000000  0.00000000  0.00000000       0.017

 k-points in reciprocal lattice and weights: K-Path Generated by VASPKIT.
   0.00000000  0.00000000  0.00000000       0.017
   0.02631579  0.00000000  0.00000000       0.017
   0.05263158  0.00000000  0.00000000       0.017
   0.07894737  0.00000000  0.00000000       0.017
   0.10526316  0.00000000  0.00000000       0.017
   0.13157895  0.00000000  0.00000000       0.017
   0.15789474  0.00000000  0.00000000       0.017
   0.18421053  0.00000000  0.00000000       0.017
   0.21052632  0.00000000  0.00000000       0.017
   0.23684211  0.00000000  0.00000000       0.017
   0.26315789  0.00000000  0.00000000       0.017
   0.28947368  0.00000000  0.00000000       0.017
   0.31578947  0.00000000  0.00000000       0.017
   0.34210526  0.00000000  0.00000000       0.017
   0.36842105  0.00000000  0.00000000       0.017
   0.39473684  0.00000000  0.00000000       0.017
   0.42105263  0.00000000  0.00000000       0.017
   0.44736842  0.00000000  0.00000000       0.017
   0.47368421  0.00000000  0.00000000       0.017
   0.50000000  0.00000000  0.00000000       0.017
   0.50000000  0.00000000  0.00000000       0.017
   0.49122807  0.01754386  0.00000000       0.017
   0.48245614  0.03508772  0.00000000       0.017
   0.47368421  0.05263158  0.00000000       0.017
   0.46491228  0.07017544  0.00000000       0.017
   0.45614035  0.08771930  0.00000000       0.017
   0.44736842  0.10526316  0.00000000       0.017
   0.43859649  0.12280702  0.00000000       0.017
   0.42982456  0.14035088  0.00000000       0.017
   0.42105263  0.15789474  0.00000000       0.017
   0.41228070  0.17543860  0.00000000       0.017
   0.40350877  0.19298246  0.00000000       0.017
   0.39473684  0.21052632  0.00000000       0.017
   0.38596491  0.22807018  0.00000000       0.017
   0.37719298  0.24561404  0.00000000       0.017
   0.36842105  0.26315789  0.00000000       0.017
   0.35964912  0.28070175  0.00000000       0.017
   0.35087719  0.29824561  0.00000000       0.017
   0.34210526  0.31578947  0.00000000       0.017
   0.33333333  0.33333333  0.00000000       0.017
   0.33333333  0.33333333  0.00000000       0.017
   0.31578947  0.31578947  0.00000000       0.017
   0.29824561  0.29824561  0.00000000       0.017
   0.28070175  0.28070175  0.00000000       0.017
   0.26315789  0.26315789  0.00000000       0.017
   0.24561404  0.24561404  0.00000000       0.017
   0.22807018  0.22807018  0.00000000       0.017
   0.21052632  0.21052632  0.00000000       0.017
   0.19298246  0.19298246  0.00000000       0.017
   0.17543860  0.17543860  0.00000000       0.017
   0.15789474  0.15789474  0.00000000       0.017
   0.14035088  0.14035088  0.00000000       0.017
   0.12280702  0.12280702  0.00000000       0.017
   0.10526316  0.10526316  0.00000000       0.017
   0.08771930  0.08771930  0.00000000       0.017
   0.07017544  0.07017544  0.00000000       0.017
   0.05263158  0.05263158  0.00000000       0.017
   0.03508772  0.03508772  0.00000000       0.017
   0.01754386  0.01754386  0.00000000       0.017
   0.00000000  0.00000000  0.00000000       0.017

 position of ions in fractional coordinates (direct lattice)
   0.66666669  0.33333334  0.25000000
   0.33333334  0.66666669  0.35415213
   0.33333334  0.66666669  0.14584787

 position of ions in cartesian coordinates  (Angst):
   1.59193028  0.91910138  3.75000000
  -0.00000000  1.83820275  5.31228195
  -0.00000000  1.83820275  2.18771805

 k-point  1 :   0.0000 0.0000 0.0000  plane waves:    1221
 k-point  2 :   0.0263 0.0000 0.0000  plane waves:    1223
 k-point  3 :   0.0526 0.0000 0.0000  plane waves:    1229
 k-point  4 :   0.0789 0.0000 0.0000  plane waves:    1231
 k-point  5 :   0.1053 0.0000 0.0000  plane waves:    1225
 k-point  6 :   0.1316 0.0000 0.0000  plane waves:    1231
 k-point  7 :   0.1579 0.0000 0.0000  plane waves:    1237
 k-point  8 :   0.1842 0.0000 0.0000  plane waves:    1241
 k-point  9 :   0.2105 0.0000 0.0000  plane waves:    1241
 k-point 10 :   0.2368 0.0000 0.0000  plane waves:    1235
 k-point 11 :   0.2632 0.0000 0.0000  plane waves:    1239
 k-point 12 :   0.2895 0.0000 0.0000  plane waves:    1237
 k-point 13 :   0.3158 0.0000 0.0000  plane waves:    1247
 k-point 14 :   0.3421 0.0000 0.0000  plane waves:    1257
 k-point 15 :   0.3684 0.0000 0.0000  plane waves:    1257
 k-point 16 :   0.3947 0.0000 0.0000  plane waves:    1250
 k-point 17 :   0.4211 0.0000 0.0000  plane waves:    1256
 k-point 18 :   0.4474 0.0000 0.0000  plane waves:    1260
 k-point 19 :   0.4737 0.0000 0.0000  plane waves:    1266
 k-point 20 :   0.5000 0.0000 0.0000  plane waves:    1256
 k-point 21 :   0.5000 0.0000 0.0000  plane waves:    1256
 k-point 22 :   0.4912 0.0175 0.0000  plane waves:    1260
 k-point 23 :   0.4825 0.0351 0.0000  plane waves:    1256
 k-point 24 :   0.4737 0.0526 0.0000  plane waves:    1252
 k-point 25 :   0.4649 0.0702 0.0000  plane waves:    1258
 k-point 26 :   0.4561 0.0877 0.0000  plane waves:    1252
 k-point 27 :   0.4474 0.1053 0.0000  plane waves:    1256
 k-point 28 :   0.4386 0.1228 0.0000  plane waves:    1252
 k-point 29 :   0.4298 0.1404 0.0000  plane waves:    1244
 k-point 30 :   0.4211 0.1579 0.0000  plane waves:    1240
 k-point 31 :   0.4123 0.1754 0.0000  plane waves:    1240
 k-point 32 :   0.4035 0.1930 0.0000  plane waves:    1240
 k-point 33 :   0.3947 0.2105 0.0000  plane waves:    1246
 k-point 34 :   0.3860 0.2281 0.0000  plane waves:    1246
 k-point 35 :   0.3772 0.2456 0.0000  plane waves:    1250
 k-point 36 :   0.3684 0.2632 0.0000  plane waves:    1258
 k-point 37 :   0.3596 0.2807 0.0000  plane waves:    1254
 k-point 38 :   0.3509 0.2982 0.0000  plane waves:    1262
 k-point 39 :   0.3421 0.3158 0.0000  plane waves:    1262
 k-point 40 :   0.3333 0.3333 0.0000  plane waves:    1266
 k-point 41 :   0.3333 0.3333 0.0000  plane waves:    1266
 k-point 42 :   0.3158 0.3158 0.0000  plane waves:    1254
 k-point 43 :   0.2982 0.2982 0.0000  plane waves:    1250
 k-point 44 :   0.2807 0.2807 0.0000  plane waves:    1254
 k-point 45 :   0.2632 0.2632 0.0000  plane waves:    1248
 k-point 46 :   0.2456 0.2456 0.0000  plane waves:    1246
 k-point 47 :   0.2281 0.2281 0.0000  plane waves:    1238
 k-point 48 :   0.2105 0.2105 0.0000  plane waves:    1244
 k-point 49 :   0.1930 0.1930 0.0000  plane waves:    1242
 k-point 50 :   0.1754 0.1754 0.0000  plane waves:    1230
 k-point 51 :   0.1579 0.1579 0.0000  plane waves:    1236
 k-point 52 :   0.1404 0.1404 0.0000  plane waves:    1240
 k-point 53 :   0.1228 0.1228 0.0000  plane waves:    1236
 k-point 54 :   0.1053 0.1053 0.0000  plane waves:    1240
 k-point 55 :   0.0877 0.0877 0.0000  plane waves:    1222
 k-point 56 :   0.0702 0.0702 0.0000  plane waves:    1231
 k-point 57 :   0.0526 0.0526 0.0000  plane waves:    1233
 k-point 58 :   0.0351 0.0351 0.0000  plane waves:    1231
 k-point 59 :   0.0175 0.0175 0.0000  plane waves:    1219
 k-point 60 :   0.0000 0.0000 0.0000  plane waves:    1221

 maximum and minimum number of plane-waves per node :      1266     1219

 maximum number of plane-waves:      1266
 maximum index in each direction:
   IXMAX=    4   IYMAX=    4   IZMAX=   19
   IXMIN=   -4   IYMIN=   -4   IZMIN=  -19

 serial   3D FFT for wavefunctions
 parallel 3D FFT for charge:
    minimum data exchange during FFTs selected (reduces bandwidth)

 initial charge density was supplied:
 number of electron      26.0000001 magnetization
 keeping initial charge density in first step

 Maximum index for augmentation-charges         2774 (set IRDMAX)

 First call to EWALD:  gamma=   0.348
 Maximum number of real-space cells 5x 5x 1
 Maximum number of reciprocal cells 2x 2x 7

--------------------------------------- Iteration      1(   1)  ---------------------------------------

 eigenvalue-minimisations  :  4080
 total energy-change (2. order) :-0.8970828E+01  (-0.8416416E+02)
 number of electron      26.0000001 magnetization
 augmentation part       26.0000001 magnetization

 Free energy of the ion-electron system (eV)
  alpha Z        PSCENC =        35.92459719
  Ewald energy   TEWEN  =      2754.58837668
  -Hartree energ DENC   =     -4899.32017544
  -exchange      EXHF   =         0.00000000
  -V(xc)+E(xc)   XCENC  =        90.81144211
  PAW double counting   =      3040.26826405    -3019.28142480
  entropy T*S    EENTRO =        -0.00000000
  eigenvalues    EBANDS =      -427.74852757
  atomic energy  EATOM  =      2415.78662005
  Solvation  Ediel_sol  =         0.00000000
  free energy    TOTEN  =        -8.97082773 eV

  energy without entropy =       -8.97082773  energy(sigma->0) =       -8.97082773

[...]

--------------------------------------- Iteration      1(   8)  ---------------------------------------

 eigenvalue-minimisations  :  3444
 total energy-change (2. order) :-0.1139597E-08  (-0.1136390E-08)
 number of electron      26.0000001 magnetization
 augmentation part       26.0000001 magnetization

 Free energy of the ion-electron system (eV)
  alpha Z        PSCENC =        35.92459719
  Ewald energy   TEWEN  =      2754.58837668
  -Hartree energ DENC   =     -4899.32017544
  -exchange      EXHF   =         0.00000000
  -V(xc)+E(xc)   XCENC  =        90.81144211
  PAW double counting   =      3040.26826405    -3019.28142480
  entropy T*S    EENTRO =        -0.00000000
  eigenvalues    EBANDS =      -440.24682398
  atomic energy  EATOM  =      2415.78662005
  Solvation  Ediel_sol  =         0.00000000
  free energy    TOTEN  =       -21.46912415 eV

  energy without entropy =      -21.46912415  energy(sigma->0) =      -21.46912415

 average (electrostatic) potential at core
  the test charge radii are     1.0818  0.9698
  (the norm of the test charge is              1.0000)
       1 -82.3279       2 -92.0334       3 -92.0334

 E-fermi :  -0.5200     XC(G=0):  -5.1106     alpha+bet : -5.4812

 k-point     1 :       0.0000    0.0000    0.0000
  band No.  band energies     occupation
      1     -61.5715      2.00000
      2     -35.7364      2.00000
      3     -35.5282      2.00000
      4     -35.5282      2.00000
      5     -14.8128      2.00000
      6     -13.5094      2.00000
      7      -6.3384      2.00000
      8      -3.3373      2.00000
      9      -3.3373      2.00000
     10      -2.4989      2.00000
     11      -2.2294      2.00000
     12      -2.2294      2.00000
     13      -0.7326      2.00000
     14       2.0339      0.00000
     15       2.0339      0.00000
     16       2.2758      0.00000
     17       2.2758      0.00000
     18       4.5374      0.00000
     19       5.1038      0.00000
     20       5.4998      0.00000
     21       6.6029      0.00000
     22       8.3570      0.00000
     23       8.7900      0.00000
     24      10.2305      0.00000

[...]

 k-point    60 :       0.0000    0.0000    0.0000
  band No.  band energies     occupation
      1     -61.5715      2.00000
      2     -35.7364      2.00000
      3     -35.5282      2.00000
      4     -35.5282      2.00000
      5     -14.8128      2.00000
      6     -13.5094      2.00000
      7      -6.3384      2.00000
      8      -3.3373      2.00000
      9      -3.3373      2.00000
     10      -2.4989      2.00000
     11      -2.2294      2.00000
     12      -2.2294      2.00000
     13      -0.7326      2.00000
     14       2.0339      0.00000
     15       2.0339      0.00000
     16       2.2758      0.00000
     17       2.2758      0.00000
     18       4.5374      0.00000
     19       5.1038      0.00000
     20       5.4998      0.00000
     21       6.6029      0.00000
     22       8.3570      0.00000
     23       8.7900      0.00000
     24      10.2305      0.00000

 soft charge-density along one line, spin component           1
         0         1         2         3         4         5         6         7         8         9
 total charge-density along one line

------------------------ aborting loop because EDIFF is reached ----------------------------------------

 total charge

# of ion       s       p       d       tot
    1        2.282   6.212   4.049  12.543
    2        1.356   2.328   0.000   3.685
    3        1.356   2.328   0.000   3.685
tot          4.994  10.869   4.049  19.912

  FORCE on cell =-STRESS in cart. coord.  units (eV):
  Direction    XX          YY          ZZ          XY          YZ          ZX
  Alpha Z    35.92460    35.92460    35.92460
  Ewald    4160.38303  4160.38305 -5566.17682     0.00001     0.00000    -0.00000
  Hartree  4663.14272  4663.14272 -4414.29808     0.00000    -0.00000    -0.00000
  E(xc)    -109.61765  -109.61766  -109.86770    -0.00000     0.00000     0.00000
  Local   -9279.07063 -9279.07083  9516.48536    -0.00017    -0.00002    -0.00001
  n-local   114.87583   116.25251   122.06330    -2.73613    -0.00000     0.00000
  augment     0.28621     0.28638    -1.38404     0.00015     0.00000     0.00000
  Kinetic   411.07556   416.35289   419.31578    -7.66865    -0.00000    -0.00000
  Fock        0.00000     0.00000     0.00000     0.00000     0.00000     0.00000
  Total       0.32666     0.32666     2.06239     0.00000     0.00000    -0.00000
  in kB       3.97440     3.97440    25.09288     0.00000     0.00000    -0.00000

 VOLUME and BASIS-vectors are now :
  energy-cutoff  :      258.69
  volume of cell :      131.68
      direct lattice vectors                 reciprocal lattice vectors
     3.183860469  0.000000000  0.000000000     0.314084116  0.181336549  0.000000000
    -1.591930234  2.757304048  0.000000000     0.000000000  0.362673098  0.000000000
     0.000000000  0.000000000 15.000000000     0.000000000  0.000000000  0.066666667

  length of vectors
     3.183860469  3.183860469 15.000000000     0.362673098  0.362673098  0.066666667

 FORCES acting on ions
    electron-ion (+dipol)            ewald-force                    non-local-force                 convergence-correction
   -.849E-04 -.451E-04 0.256E-05   -.695E-05 0.401E-05 0.114E-12   0.243E-16 0.000E+00 0.000E+00   -.270E-02 0.164E-02 0.131E-07
   -.122E-05 -.331E-04 -.836E+03   0.348E-05 -.201E-05 0.838E+03   0.382E-16 0.104E-16 -.381E+01   0.182E-03 -.103E-03 0.202E+01
   0.647E-05 -.197E-04 0.836E+03   0.348E-05 -.201E-05 -.838E+03   0.278E-16 0.694E-17 0.381E+01   0.182E-03 -.103E-03 -.202E+01
   -.796E-04 -.979E-04 0.224E-05   0.103E-13 0.547E-14 0.000E+00   0.902E-16 0.173E-16 0.000E+00   -.233E-02 0.144E-02 0.930E-08

 POSITION                                       TOTAL-FORCE (eV/Angst)
      1.59193      0.91910      3.75000        -0.000000      0.000000     -0.000000
     -0.00000      1.83820      5.31228         0.000000      0.000000      0.128102
     -0.00000      1.83820      2.18772         0.000000     -0.000000     -0.128102
    total drift:                               -0.002413      0.001340      0.000002

  FREE ENERGIE OF THE ION-ELECTRON SYSTEM (eV)
  free  energy   TOTEN  =       -21.46912415 eV

  energy  without entropy=      -21.46912415  energy(sigma->0) =      -21.46912415

 writing wavefunctions

 total charge

# of ion       s       p       d       tot
    1        2.282   6.212   4.049  12.543
    2        1.356   2.328   0.000   3.685
    3        1.356   2.328   0.000   3.685
tot          4.994  10.869   4.049  19.912