 vasp.5.4.4.18Apr17-6-g9f103f2a35 (build Apr 28 2023 10:04:10) complex

 executed on             LinuxIFC date 2023.11.10  21:09:23

 INCAR:
 POTCAR:    PAW_PBE Mo_sv 02Feb2006
 POTCAR:    PAW_PBE S 06Sep2000

 POTCAR:    PAW_PBE Mo_sv 02Feb2006
   VRHFIN =Mo: 4p5s4d

   TITEL  = PAW_PBE Mo_sv 02Feb2006
   POMASS =   95.940; ZVAL   =   14.000    mass and valenz
   ENMAX  =  242.676; ENMIN  =  182.007 eV

 POTCAR:    PAW_PBE S 06Sep2000
   VRHFIN =S : s2p4

   TITEL  = PAW_PBE S 06Sep2000
   POMASS =   32.066; ZVAL   =    6.000    mass and valenz
   ENMAX  =  258.689; ENMIN  =  194.016 eV

  PAW_PBE Mo_sv 02Feb2006               :
  PAW_PBE S 06Sep2000                   :

 POSCAR: Mo2 S4
  positions in direct lattice
  velocities in cartesian coordinates
 exchange correlation table for  LEXCH =        8
   RHO(1)=    0.500       N(1)  =     2000
   RHO(2)=  100.500       N(2)  =     4000

 ion  position               nearest neighbor table
   1  0.667  0.333  0.250-   2 2.41   3 2.41   2 2.41   3 2.41   2 2.41   3 2.41
   2  0.333  0.667  0.354-   1 2.41   1 2.41   1 2.41
   3  0.333  0.667  0.146-   1 2.41   1 2.41   1 2.41

  LATTYP: Found a hexagonal cell.
 ALAT       =     3.1838604687
 C/A-ratio  =     4.7112617363

  Lattice vectors:

 A1 = (   3.1838604687,   0.0000000000,   0.0000000000)
 A2 = (  -1.5919302343,   2.7573040480,   0.0000000000)
 A3 = (   0.0000000000,   0.0000000000,  15.0000000000)

Analysis of symmetry for initial positions (statically):
 Subroutine PRICEL returns:
 Original cell was already a primitive cell.

 Routine SETGRP: Setting up the symmetry group for a
 hexagonal supercell.

 Subroutine GETGRP returns: Found 12 space group operations
 (whereof  6 operations were pure point group operations)
 out of a pool of 24 trial point group operations.

The static configuration has the point symmetry C_3v.
 The point group associated with its full space group is D_3h.

Analysis of symmetry for dynamics (positions and initial velocities):
 Subroutine PRICEL returns:
 Original cell was already a primitive cell.

 Routine SETGRP: Setting up the symmetry group for a
 hexagonal supercell.

 Subroutine GETGRP returns: Found 12 space group operations
 (whereof  6 operations were pure point group operations)
 out of a pool of 24 trial point group operations.

The dynamic configuration has the point symmetry C_3v.
 The point group associated with its full space group is D_3h.

 Subroutine INISYM returns: Found 12 space group operations
 (whereof  6 operations are pure point group operations),
 and found     1 'primitive' translations

 KPOINTS: K-Spacing Value to Generate K-Mesh: 0.04

Automatic generation of k-mesh.
Space group operators:
 irot       det(A)        alpha          n_x          n_y          n_z        tau_x        tau_y        tau_z
    1     1.000000     0.000000     1.000000     0.000000     0.000000     0.000000     0.000000     0.000000
    2     1.000000   120.000000     0.000000     0.000000    -1.000000     0.000000     0.000000     0.000000
    3     1.000000   120.000000     0.000000     0.000000     1.000000     0.000000     0.000000     0.000000
    4    -1.000000   180.000000     1.000000     0.000000     0.000000     0.000000     0.000000     0.000000
    5    -1.000000   180.000000     0.500000    -0.866025     0.000000     0.000000     0.000000     0.000000
    6    -1.000000   180.000000    -0.500000    -0.866025     0.000000     0.000000     0.000000     0.000000
    7    -1.000000    60.000000     0.000000     0.000000    -1.000000     0.000000     0.000000     0.500000
    8    -1.000000   180.000000     0.000000     0.000000     1.000000     0.000000     0.000000     0.500000
    9    -1.000000    60.000000     0.000000     0.000000     1.000000     0.000000     0.000000     0.500000
   10     1.000000   180.000000     0.866025    -0.500000     0.000000     0.000000     0.000000     0.500000
   11     1.000000   180.000000     0.000000     1.000000     0.000000     0.000000     0.000000     0.500000
   12     1.000000   180.000000     0.866025     0.500000     0.000000     0.000000     0.000000     0.500000

 Subroutine IBZKPT returns following result:

 Found     42 irreducible k-points:

 Following reciprocal coordinates:
            Coordinates               Weight
  0.041667  0.041667  0.000000     48.000000
  0.125000  0.041667  0.000000     96.000000
  0.208333  0.041667  0.000000     96.000000
  0.291667  0.041667  0.000000     96.000000
  0.375000  0.041667  0.000000     96.000000
  0.458333  0.041667  0.000000     96.000000
 -0.458333  0.041667  0.000000     96.000000
 -0.375000  0.041667  0.000000     96.000000
 -0.291667  0.041667  0.000000     96.000000
 -0.208333  0.041667  0.000000     96.000000
 -0.125000  0.041667  0.000000     96.000000
 -0.041667  0.041667  0.000000     48.000000
  0.125000  0.125000  0.000000     48.000000
  0.208333  0.125000  0.000000     96.000000
  0.291667  0.125000  0.000000     96.000000
  0.375000  0.125000  0.000000     96.000000
  0.458333  0.125000  0.000000     96.000000
 -0.458333  0.125000  0.000000     96.000000
 -0.375000  0.125000  0.000000     96.000000
 -0.291667  0.125000  0.000000     96.000000
 -0.208333  0.125000  0.000000     96.000000
 -0.125000  0.125000  0.000000     48.000000
  0.208333  0.208333  0.000000     48.000000
  0.291667  0.208333  0.000000     96.000000
  0.375000  0.208333  0.000000     96.000000
  0.458333  0.208333  0.000000     96.000000
 -0.458333  0.208333  0.000000     96.000000
 -0.375000  0.208333  0.000000     96.000000
 -0.291667  0.208333  0.000000     96.000000
 -0.208333  0.208333  0.000000     48.000000
  0.291667  0.291667  0.000000     48.000000
  0.375000  0.291667  0.000000     96.000000
  0.458333  0.291667  0.000000     96.000000
 -0.458333  0.291667  0.000000     96.000000
 -0.375000  0.291667  0.000000     96.000000
 -0.291667  0.291667  0.000000     48.000000
  0.375000  0.375000  0.000000     48.000000
  0.458333  0.375000  0.000000     96.000000
 -0.458333  0.375000  0.000000     96.000000
 -0.375000  0.375000  0.000000     48.000000
  0.458333  0.458333  0.000000     48.000000
 -0.458333  0.458333  0.000000     48.000000

 Following cartesian coordinates:
            Coordinates               Weight
  0.013087  0.022667  0.000000     48.000000
  0.039261  0.037778  0.000000     96.000000
  0.065434  0.052890  0.000000     96.000000
  0.091608  0.068001  0.000000     96.000000
  0.117782  0.083113  0.000000     96.000000
  0.143955  0.098224  0.000000     96.000000
 -0.143955 -0.068001  0.000000     96.000000
 -0.117782 -0.052890  0.000000     96.000000
 -0.091608 -0.037778  0.000000     96.000000
 -0.065434 -0.022667  0.000000     96.000000
 -0.039261 -0.007556  0.000000     96.000000
 -0.013087  0.007556  0.000000     48.000000
  0.039261  0.068001  0.000000     48.000000
  0.065434  0.083113  0.000000     96.000000
  0.091608  0.098224  0.000000     96.000000
  0.117782  0.113335  0.000000     96.000000
  0.143955  0.128447  0.000000     96.000000
 -0.143955 -0.037778  0.000000     96.000000
 -0.117782 -0.022667  0.000000     96.000000
 -0.091608 -0.007556  0.000000     96.000000
 -0.065434  0.007556  0.000000     96.000000
 -0.039261  0.022667  0.000000     48.000000
  0.065434  0.113335  0.000000     48.000000
  0.091608  0.128447  0.000000     96.000000
  0.117782  0.143558  0.000000     96.000000
  0.143955  0.158669  0.000000     96.000000
 -0.143955 -0.007556  0.000000     96.000000
 -0.117782  0.007556  0.000000     96.000000
 -0.091608  0.022667  0.000000     96.000000
 -0.065434  0.037778  0.000000     48.000000
  0.091608  0.158669  0.000000     48.000000
  0.117782  0.173781  0.000000     96.000000
  0.143955  0.188892  0.000000     96.000000
 -0.143955  0.022667  0.000000     96.000000
 -0.117782  0.037778  0.000000     96.000000
 -0.091608  0.052890  0.000000     48.000000
  0.117782  0.204004  0.000000     48.000000
  0.143955  0.219115  0.000000     96.000000
 -0.143955  0.052890  0.000000     96.000000
 -0.117782  0.068001  0.000000     48.000000
  0.143955  0.249338  0.000000     48.000000
 -0.143955  0.083113  0.000000     48.000000

 SYSTEM =  unknown system
 POSCAR =  Mo2 S4

 Startparameter for this run:
   NWRITE =      2    write-flag & timer
   PREC   = accura    normal or accurate (medium, high low for compatibility)
   ISTART =      1    job   : 0-new  1-cont  2-samecut
   ICHARG =      0    charge: 1-file 2-atom 10-const
   ISPIN  =      1    spin polarized calculation?
   LNONCOLLINEAR =      F non collinear calculations
   LSORBIT =      F    spin-orbit coupling
   INIWAV =      1    electr: 0-lowe 1-rand  2-diag
   LASPH  =      F    aspherical Exc in radial PAW
   METAGGA=      F    non-selfconsistent MetaGGA calc.

 Electronic Relaxation 1
   ENCUT  =  520.0 eV  38.22 Ry    6.18 a.u.   5.92  5.92 27.89*2*pi/ulx,y,z
   ENINI  =  520.0     initial cutoff
   ENAUG  =  446.0 eV  augmentation charge cutoff
   NELM   =     60;   NELMIN=  2; NELMDL=  0     # of ELM steps
   EDIFF  = 0.1E-07   stopping-criterion for ELM
   LREAL  =      F    real-space projection
   NLSPLINE    = F    spline interpolate recip. space projectors
   LCOMPAT=      F    compatible to vasp.4.4
   GGA_COMPAT  = T    GGA compatible to vasp.4.4-vasp.4.6
   LMAXPAW     = -100 max onsite density
   LMAXMIX     =    2 max onsite mixed and CHGCAR
   VOSKOWN=      0    Vosko Wilk Nusair interpolation
   ROPT   =    0.00000   0.00000
 Ionic relaxation
   EDIFFG = -.2E-04   stopping-criterion for IOM
   NSW    =    300    number of steps for IOM
   NBLOCK =      1;   KBLOCK =    300    inner block; outer block
   IBRION =      2    ionic relax: 0-MD 1-quasi-New 2-CG
   NFREE  =      1    steps in history (QN), initial steepest desc. (CG)
   ISIF   =      2    stress and relaxation
   IWAVPR =     11    prediction:  0-non 1-charg 2-wave 3-comb
   ISYM   =      2    0-nonsym 1-usesym 2-fastsym
   LCORR  =      T    Harris-Foulkes like correction to forces

   POTIM  = 0.5000    time-step for ionic-motion
   TEIN   =    0.0    initial temperature
   TEBEG  =    0.0;   TEEND  =   0.0 temperature during run
   SMASS  =  -3.00    Nose mass-parameter (am)
   estimated Nose-frequenzy (Omega)   =  0.10E-29 period in steps =****** mass=  -0.232E-27a.u.
   SCALEE = 1.0000    scale energy and forces
   NPACO  =    256;   APACO  = 16.0  distance and # of slots for P.C.
   PSTRESS=    0.0 pullay stress

  Mass of Ions in am
   POMASS =  95.94 32.07
  Ionic Valenz
   ZVAL   =  14.00  6.00
  Atomic Wigner-Seitz radii
  virtual crystal weights
   VCA    =   1.00  1.00
   NELECT =      26.0000    total number of electrons
   NUPDOWN=      -1.0000    fix difference up-down

 DOS related values:
   EMIN   =  10.00;   EMAX   =-10.00  energy-range for DOS
   EFERMI =   0.00
   ISMEAR =     0;   SIGMA  =   0.05  broadening in eV -4-tet -1-fermi 0-gaus

 Electronic relaxation 2 (details)
   IALGO  =     38    algorithm
   LDIAG  =      T    sub-space diagonalisation (order eigenvalues)
   LSUBROT=      F    optimize rotation matrix (better conditioning)
   TURBO    =      0    0=normal 1=particle mesh
   IRESTART =      0    0=no restart 2=restart with 2 vectors
[...]
   0.45833333  0.04166667  0.00000000       0.028
  -0.45833333  0.04166667  0.00000000       0.028
  -0.37500000  0.04166667  0.00000000       0.028
  -0.29166667  0.04166667  0.00000000       0.028
  -0.20833333  0.04166667  0.00000000       0.028
  -0.12500000  0.04166667  0.00000000       0.028
  -0.04166667  0.04166667  0.00000000       0.014
   0.12500000  0.12500000  0.00000000       0.014
   0.20833333  0.12500000  0.00000000       0.028
   0.29166667  0.12500000  0.00000000       0.028
   0.37500000  0.12500000  0.00000000       0.028
   0.45833333  0.12500000  0.00000000       0.028
  -0.45833333  0.12500000  0.00000000       0.028
  -0.37500000  0.12500000  0.00000000       0.028
  -0.29166667  0.12500000  0.00000000       0.028
  -0.20833333  0.12500000  0.00000000       0.028
  -0.12500000  0.12500000  0.00000000       0.014
   0.20833333  0.20833333  0.00000000       0.014
   0.29166667  0.20833333  0.00000000       0.028
   0.37500000  0.20833333  0.00000000       0.028
   0.45833333  0.20833333  0.00000000       0.028
  -0.45833333  0.20833333  0.00000000       0.028
  -0.37500000  0.20833333  0.00000000       0.028
  -0.29166667  0.20833333  0.00000000       0.028
  -0.20833333  0.20833333  0.00000000       0.014
   0.29166667  0.29166667  0.00000000       0.014
   0.37500000  0.29166667  0.00000000       0.028
   0.45833333  0.29166667  0.00000000       0.028
  -0.45833333  0.29166667  0.00000000       0.028
  -0.37500000  0.29166667  0.00000000       0.028
  -0.29166667  0.29166667  0.00000000       0.014
   0.37500000  0.37500000  0.00000000       0.014
   0.45833333  0.37500000  0.00000000       0.028
  -0.45833333  0.37500000  0.00000000       0.028
  -0.37500000  0.37500000  0.00000000       0.014
   0.45833333  0.45833333  0.00000000       0.014
  -0.45833333  0.45833333  0.00000000       0.014

 position of ions in fractional coordinates (direct lattice)
   0.66666669  0.33333334  0.25000000
   0.33333334  0.66666669  0.35415206
   0.33333334  0.66666669  0.14584794

 position of ions in cartesian coordinates  (Angst):
   1.59193028  0.91910138  3.75000000
  -0.00000000  1.83820275  5.31228086
  -0.00000000  1.83820275  2.18771914

 k-point  1 :   0.0417 0.0417 0.0000  plane waves:    3514
 k-point  2 :   0.1250 0.0417 0.0000  plane waves:    3516
 k-point  3 :   0.2083 0.0417 0.0000  plane waves:    3528
 k-point  4 :   0.2917 0.0417 0.0000  plane waves:    3544
 k-point  5 :   0.3750 0.0417 0.0000  plane waves:    3554
 k-point  6 :   0.4583 0.0417 0.0000  plane waves:    3558
 k-point  7 :  -0.4583 0.0417 0.0000  plane waves:    3552
 k-point  8 :  -0.3750 0.0417 0.0000  plane waves:    3538
 k-point  9 :  -0.2917 0.0417 0.0000  plane waves:    3541
 k-point 10 :  -0.2083 0.0417 0.0000  plane waves:    3514
 k-point 11 :  -0.1250 0.0417 0.0000  plane waves:    3517
 k-point 12 :  -0.0417 0.0417 0.0000  plane waves:    3501
 k-point 13 :   0.1250 0.1250 0.0000  plane waves:    3530
 k-point 14 :   0.2083 0.1250 0.0000  plane waves:    3545
 k-point 15 :   0.2917 0.1250 0.0000  plane waves:    3538
 k-point 16 :   0.3750 0.1250 0.0000  plane waves:    3543
 k-point 17 :   0.4583 0.1250 0.0000  plane waves:    3560
 k-point 18 :  -0.4583 0.1250 0.0000  plane waves:    3543
 k-point 19 :  -0.3750 0.1250 0.0000  plane waves:    3545
 k-point 20 :  -0.2917 0.1250 0.0000  plane waves:    3545
 k-point 21 :  -0.2083 0.1250 0.0000  plane waves:    3522
 k-point 22 :  -0.1250 0.1250 0.0000  plane waves:    3521
 k-point 23 :   0.2083 0.2083 0.0000  plane waves:    3562
 k-point 24 :   0.2917 0.2083 0.0000  plane waves:    3559
 k-point 25 :   0.3750 0.2083 0.0000  plane waves:    3570
 k-point 26 :   0.4583 0.2083 0.0000  plane waves:    3566
 k-point 27 :  -0.4583 0.2083 0.0000  plane waves:    3564
 k-point 28 :  -0.3750 0.2083 0.0000  plane waves:    3558
 k-point 29 :  -0.2917 0.2083 0.0000  plane waves:    3536
 k-point 30 :  -0.2083 0.2083 0.0000  plane waves:    3522
 k-point 31 :   0.2917 0.2917 0.0000  plane waves:    3564
 k-point 32 :   0.3750 0.2917 0.0000  plane waves:    3567
 k-point 33 :   0.4583 0.2917 0.0000  plane waves:    3563
 k-point 34 :  -0.4583 0.2917 0.0000  plane waves:    3555
 k-point 35 :  -0.3750 0.2917 0.0000  plane waves:    3547
 k-point 36 :  -0.2917 0.2917 0.0000  plane waves:    3540
 k-point 37 :   0.3750 0.3750 0.0000  plane waves:    3566
 k-point 38 :   0.4583 0.3750 0.0000  plane waves:    3558
 k-point 39 :  -0.4583 0.3750 0.0000  plane waves:    3542
 k-point 40 :  -0.3750 0.3750 0.0000  plane waves:    3550
 k-point 41 :   0.4583 0.4583 0.0000  plane waves:    3560
 k-point 42 :  -0.4583 0.4583 0.0000  plane waves:    3550

 maximum and minimum number of plane-waves per node :      3570     3501

 maximum number of plane-waves:      3570
 maximum index in each direction:
   IXMAX=    6   IYMAX=    5   IZMAX=   27
   IXMIN=   -6   IYMIN=   -6   IZMIN=  -27

 serial   3D FFT for wavefunctions
 parallel 3D FFT for charge:
    minimum data exchange during FFTs selected (reduces bandwidth)

 Broyden mixing: mesh for mixing (old mesh)
   NGX = 11   NGY = 11   NGZ = 55
  (NGX  = 48   NGY  = 48   NGZ  =224)
  gives a total of   6655 points

 charge density for first step will be calculated from the start-wavefunctions

 Maximum index for augmentation-charges         8886 (set IRDMAX)

 initial charge from wavefunction
 First call to EWALD:  gamma=   0.348
 Maximum number of real-space cells 5x 5x 1
 Maximum number of reciprocal cells 2x 2x 7

--------------------------------------- Iteration      1(   1)  ---------------------------------------

 eigenvalue-minimisations  :  2160
 total energy-change (2. order) :-0.2184669E+02  (-0.4424670E-05)
 number of electron      26.0000000 magnetization
 augmentation part        0.7848473 magnetization

 Broyden mixing:
  rms(total) = 0.17120E-04    rms(broyden)= 0.17058E-04
  rms(prec ) = 0.21054E-04
  weight for this iteration     100.00

 Free energy of the ion-electron system (eV)
  alpha Z        PSCENC =        35.92459719
  Ewald energy   TEWEN  =      2754.59020459
  -Hartree energ DENC   =     -4899.40591179
  -exchange      EXHF   =         0.00000000
  -V(xc)+E(xc)   XCENC  =        90.79702472
  PAW double counting   =      2923.63129473    -2902.60588515
  entropy T*S    EENTRO =        -0.00000000
  eigenvalues    EBANDS =      -440.70043231
  atomic energy  EATOM  =      2415.92241936
  Solvation  Ediel_sol  =         0.00000000
  free energy    TOTEN  =       -21.84668866 eV

  energy without entropy =      -21.84668866  energy(sigma->0) =      -21.84668866

[...]

 eigenvalue-minimisations  :  2120
 total energy-change (2. order) : 0.3421519E-08  (-0.1045524E-08)
 number of electron      26.0000000 magnetization
 augmentation part        0.7848473 magnetization

[...]

 average (electrostatic) potential at core
  the test charge radii are     1.0818  0.9698
  (the norm of the test charge is              1.0000)
       1 -82.3519       2 -92.0144       3 -92.0144

 E-fermi :  -0.5213     XC(G=0):  -5.0817     alpha+bet : -5.4812

 k-point     1 :       0.0417    0.0417    0.0000
  band No.  band energies     occupation
      1     -61.6023      2.00000
      2     -35.7395      2.00000
      3     -35.5584      2.00000
      4     -35.5437      2.00000
      5     -14.7284      2.00000
      6     -13.4726      2.00000
      7      -6.2492      2.00000
      8      -3.5123      2.00000
      9      -3.2585      2.00000
     10      -2.9074      2.00000
     11      -2.3693      2.00000
     12      -1.9375      2.00000
     13      -0.7727      2.00000
     14       1.9127      0.00000
     15       2.0567      0.00000
     16       2.1640      0.00000
     17       2.1811      0.00000
     18       4.7021      0.00000
     19       5.1989      0.00000
     20       5.8489      0.00000

[...]

 soft charge-density along one line, spin component           1
         0         1         2         3         4         5         6         7         8         9
 total charge-density along one line

------------------------ aborting loop because EDIFF is reached ----------------------------------------

  FORCE on cell =-STRESS in cart. coord.  units (eV):
  Direction    XX          YY          ZZ          XY          YZ          ZX
  Alpha Z    35.92460    35.92460    35.92460
  Ewald    4160.38508  4160.38509 -5566.17908     0.00001     0.00000     0.00000
  Hartree  4654.52114  4654.52114 -4409.63749     0.00000    -0.00000    -0.00000
  E(xc)    -109.63608  -109.63608  -109.86057     0.00000    -0.00000    -0.00000
  Local   -9273.25848 -9273.25850  9510.16159    -0.00002     0.00000     0.00000
  n-local   116.77403   120.92861   124.22362    -1.19919    -0.00000    -0.00000
  augment    -0.53128    -0.53127    -1.68381     0.00001    -0.00000    -0.00000
  Kinetic   408.30751   419.17893   417.02810    -3.13797    -0.00000    -0.00000
  Fock        0.00000     0.00000     0.00000     0.00000     0.00000     0.00000
  Total      -0.00048    -0.00048    -0.02304     0.00000     0.00000     0.00000
  in kB      -0.00586    -0.00586    -0.28038     0.00000     0.00000     0.00000

 VOLUME and BASIS-vectors are now :
  energy-cutoff  :      520.00
  volume of cell :      131.68
      direct lattice vectors                 reciprocal lattice vectors
     3.183860469  0.000000000  0.000000000     0.314084116  0.181336549  0.000000000
    -1.591930234  2.757304048  0.000000000     0.000000000  0.362673098  0.000000000
     0.000000000  0.000000000 15.000000000     0.000000000  0.000000000  0.066666667

[...]

 FORCES acting on ions
    electron-ion (+dipol)            ewald-force                    non-local-force                 convergence-correction
   -.846E-04 -.447E-04 0.256E-05   -.695E-05 0.401E-05 -.114E-12   -.115E-16 0.172E-17 -.265E-22   -.155E-09 0.464E-10 -.406E-12
   0.292E-05 -.269E-04 -.834E+03   0.348E-05 -.201E-05 0.838E+03   -.119E-16 -.582E-17 -.459E+01   0.761E-09 -.432E-09 -.223E-03
   0.300E-05 -.268E-04 0.834E+03   0.348E-05 -.201E-05 -.838E+03   -.760E-17 -.555E-17 0.459E+01   0.761E-09 -.432E-09 0.223E-03
   -.787E-04 -.984E-04 0.226E-05   0.103E-13 0.547E-14 0.000E+00   -.310E-16 -.965E-17 0.888E-15   0.137E-08 -.817E-09 0.263E-13

 POSITION                                       TOTAL-FORCE (eV/Angst)
      1.59193      0.91910      3.75000         0.000000     -0.000000     -0.000000
     -0.00000      1.83820      5.31228        -0.000000      0.000000      0.000023
     -0.00000      1.83820      2.18772        -0.000000      0.000000     -0.000023
    total drift:                               -0.000079     -0.000098      0.000002

  FREE ENERGIE OF THE ION-ELECTRON SYSTEM (eV)
  free  energy   TOTEN  =       -21.84668866 eV

  energy  without entropy=      -21.84668866  energy(sigma->0) =      -21.84668866

[...]

 Broyden mixing:
  rms(total) = 0.55050E-05    rms(broyden)= 0.53392E-05
  rms(prec ) = 0.55980E-05
  weight for this iteration     100.00

[...]

--------------------------------------- Iteration      2(   2)  ---------------------------------------

 eigenvalue-minimisations  :  2220
 total energy-change (2. order) : 0.1306489E-08  (-0.2390251E-10)
 number of electron      26.0000000 magnetization
 augmentation part        0.7848412 magnetization

 Free energy of the ion-electron system (eV)
  alpha Z        PSCENC =        35.92459719
  Ewald energy   TEWEN  =      2754.58837668
  -Hartree energ DENC   =     -4899.40466609
  -exchange      EXHF   =         0.00000000
  -V(xc)+E(xc)   XCENC  =        90.79701324
  PAW double counting   =      2923.63288227    -2902.60747580
  entropy T*S    EENTRO =        -0.00000000
  eigenvalues    EBANDS =      -440.69983551
  atomic energy  EATOM  =      2415.92241936
  Solvation  Ediel_sol  =         0.00000000
  free energy    TOTEN  =       -21.84668866 eV

  energy without entropy =      -21.84668866  energy(sigma->0) =      -21.84668866

 average (electrostatic) potential at core
  the test charge radii are     1.0818  0.9698
  (the norm of the test charge is              1.0000)
       1 -82.3519       2 -92.0144       3 -92.0144

 E-fermi :  -0.5213     XC(G=0):  -5.0817     alpha+bet : -5.4812

[...]

 k-point    42 :      -0.4583    0.4583    0.0000
  band No.  band energies     occupation
      1     -61.5676      2.00000
      2     -35.9017      2.00000
      3     -35.6703      2.00000
      4     -35.6234      2.00000
      5     -12.9835      2.00000
      6     -12.7772      2.00000
      7      -6.4452      2.00000
      8      -5.4594      2.00000
      9      -4.7716      2.00000
     10      -3.8690      2.00000
     11      -2.5904      2.00000
     12      -1.7361      2.00000
     13      -1.4082      2.00000
     14       1.4980      0.00000
     15       1.9770      0.00000
     16       3.1117      0.00000
     17       3.5574      0.00000
     18       5.5699      0.00000
     19       7.1593      0.00000
     20       7.4152      0.00000

 soft charge-density along one line, spin component           1
         0         1         2         3         4         5         6         7         8         9
 total charge-density along one line

------------------------ aborting loop because EDIFF is reached ----------------------------------------

  FORCE on cell =-STRESS in cart. coord.  units (eV):
  Direction    XX          YY          ZZ          XY          YZ          ZX
  Alpha Z    35.92460    35.92460    35.92460
  Ewald    4160.38303  4160.38305 -5566.17682     0.00001     0.00000    -0.00000
  Hartree  4654.52114  4654.52113 -4409.63700     0.00000    -0.00000    -0.00000
  E(xc)    -109.63607  -109.63607  -109.86056     0.00000    -0.00000    -0.00000
  Local   -9273.25609 -9273.25610  9510.15935    -0.00002     0.00000     0.00000
  n-local   116.77378   120.92835   124.22338    -1.19919    -0.00000    -0.00000
  augment    -0.53116    -0.53115    -1.68369     0.00001    -0.00000    -0.00000
  Kinetic   408.30753   419.17890   417.02806    -3.13796    -0.00000    -0.00000
  Fock        0.00000     0.00000     0.00000     0.00000     0.00000     0.00000
  Total      -0.00027    -0.00027    -0.02267     0.00000     0.00000     0.00000
  in kB      -0.00323    -0.00323    -0.27581     0.00000     0.00000     0.00000

 VOLUME and BASIS-vectors are now :
  energy-cutoff  :      520.00
  volume of cell :      131.68
      direct lattice vectors                 reciprocal lattice vectors
     3.183860469  0.000000000  0.000000000     0.314084116  0.181336549  0.000000000
    -1.591930234  2.757304048  0.000000000     0.000000000  0.362673098  0.000000000
     0.000000000  0.000000000 15.000000000     0.000000000  0.000000000  0.066666667

  length of vectors
     3.183860469  3.183860469 15.000000000     0.362673098  0.362673098  0.066666667

 FORCES acting on ions
    electron-ion (+dipol)            ewald-force                    non-local-force                 convergence-correction
   -.846E-04 -.447E-04 0.256E-05   -.695E-05 0.401E-05 0.114E-12   -.681E-18 0.411E-18 0.794E-22   -.129E-09 0.836E-10 -.287E-11
   0.292E-05 -.269E-04 -.834E+03   0.348E-05 -.201E-05 0.838E+03   0.876E-17 -.606E-17 -.459E+01   0.516E-09 -.300E-09 0.778E-04
   0.300E-05 -.268E-04 0.834E+03   0.348E-05 -.201E-05 -.838E+03   0.916E-17 -.633E-17 0.459E+01   0.516E-09 -.300E-09 -.778E-04
   -.787E-04 -.984E-04 0.226E-05   0.103E-13 0.547E-14 0.000E+00   0.172E-16 -.120E-16 0.000E+00   0.904E-09 -.517E-09 -.466E-11

 POSITION                                       TOTAL-FORCE (eV/Angst)
      1.59193      0.91910      3.75000         0.000000      0.000000     -0.000000
     -0.00000      1.83820      5.31228        -0.000000     -0.000000     -0.000008
     -0.00000      1.83820      2.18772         0.000000     -0.000000      0.000008
    total drift:                               -0.000079     -0.000098      0.000002

  FREE ENERGIE OF THE ION-ELECTRON SYSTEM (eV)
  free  energy   TOTEN  =       -21.84668866 eV

  energy  without entropy=      -21.84668866  energy(sigma->0) =      -21.84668866

 d Force = 0.1548398E-10[-0.183E-10, 0.493E-10]  d Energy =-0.2359229E-08 0.237E-08
 d Force = 0.1827907E-02[ 0.183E-02, 0.183E-02]  d Ewald  = 0.1827907E-02-0.396E-10

 Steepest descent step on ions:
 trial-energy change:    0.000000  1 .order   -0.000000   -0.000000    0.000000
  (g-gl).g = 0.493E-10      g.g   = 0.493E-10  gl.gl    = 0.000E+00
 g(Force)  = 0.493E-10   g(Stress)= 0.000E+00 ortho     = 0.000E+00
 gamma     =   0.00000
 trial     =   1.00000
 opt step  =   0.72910  (harmonic =   0.72910) maximal distance =0.00000079
 next E    =   -21.846689   (d E  =  -0.00000)

 reached required accuracy - stopping structural energy minimisation
 writing wavefunctions