 vasp.5.4.4.18Apr17-6-g9f103f2a35 (build Apr 28 2023 10:04:10) complex

 executed on             LinuxIFC date 2023.11.23  15:39:50

 INCAR:
 POTCAR:    PAW_PBE Mo_sv 02Feb2006
 POTCAR:    PAW_PBE S 06Sep2000

 POTCAR:    PAW_PBE Mo_sv 02Feb2006
   VRHFIN =Mo: 4p5s4d

   TITEL  = PAW_PBE Mo_sv 02Feb2006
   POMASS =   95.940; ZVAL   =   14.000    mass and valenz
   ENMAX  =  242.676; ENMIN  =  182.007 eV

 POTCAR:    PAW_PBE S 06Sep2000
   VRHFIN =S : s2p4

   TITEL  = PAW_PBE S 06Sep2000
   POMASS =   32.066; ZVAL   =    6.000    mass and valenz
   ENMAX  =  258.689; ENMIN  =  194.016 eV

  PAW_PBE Mo_sv 02Feb2006               :
  PAW_PBE S 06Sep2000                   :

 POSCAR: Mo2 S4
  positions in direct lattice
  velocities in cartesian coordinates
 exchange correlation table for  LEXCH =        8
   RHO(1)=    0.500       N(1)  =     2000
   RHO(2)=  100.500       N(2)  =     4000

 ion  position               nearest neighbor table
   1  0.667  0.333  0.250-   2 2.41   3 2.41   2 2.41   3 2.41   2 2.41   3 2.41
   2  0.333  0.667  0.354-   1 2.41   1 2.41   1 2.41
   3  0.333  0.667  0.146-   1 2.41   1 2.41   1 2.41

  LATTYP: Found a hexagonal cell.
 ALAT       =     3.1838604687
 C/A-ratio  =     4.7112617363

  Lattice vectors:

 A1 = (   3.1838604687,   0.0000000000,   0.0000000000)
 A2 = (  -1.5919302343,   2.7573040480,   0.0000000000)
 A3 = (   0.0000000000,   0.0000000000,  15.0000000000)

Analysis of symmetry for initial positions (statically):
 Subroutine PRICEL returns:
 Original cell was already a primitive cell.

 Routine SETGRP: Setting up the symmetry group for a
 hexagonal supercell.

 Subroutine GETGRP returns: Found 12 space group operations
 (whereof  6 operations were pure point group operations)
 out of a pool of 24 trial point group operations.

The static configuration has the point symmetry C_3v.
 The point group associated with its full space group is D_3h.

Analysis of symmetry for dynamics (positions and initial velocities):
 Subroutine PRICEL returns:
 Original cell was already a primitive cell.

 Routine SETGRP: Setting up the symmetry group for a
 hexagonal supercell.

 Subroutine GETGRP returns: Found 12 space group operations
 (whereof  6 operations were pure point group operations)
 out of a pool of 24 trial point group operations.

The dynamic configuration has the point symmetry C_3v.
 The point group associated with its full space group is D_3h.

 Subroutine INISYM returns: Found 12 space group operations
 (whereof  6 operations are pure point group operations),
 and found     1 'primitive' translations

 KPOINTS: K-Spacing Value to Generate K-Mesh: 0.04

Automatic generation of k-mesh.
Space group operators:
 irot       det(A)        alpha          n_x          n_y          n_z        tau_x        tau_y        tau_z
    1     1.000000     0.000000     1.000000     0.000000     0.000000     0.000000     0.000000     0.000000
    2     1.000000   120.000000     0.000000     0.000000    -1.000000     0.000000     0.000000     0.000000
    3     1.000000   120.000000     0.000000     0.000000     1.000000     0.000000     0.000000     0.000000
    4    -1.000000   180.000000     1.000000     0.000000     0.000000     0.000000     0.000000     0.000000
    5    -1.000000   180.000000     0.500000    -0.866025     0.000000     0.000000     0.000000     0.000000
    6    -1.000000   180.000000    -0.500000    -0.866025     0.000000     0.000000     0.000000     0.000000
    7    -1.000000    60.000000     0.000000     0.000000    -1.000000     0.000000     0.000000     0.500000
    8    -1.000000   180.000000     0.000000     0.000000     1.000000     0.000000     0.000000     0.500000
    9    -1.000000    60.000000     0.000000     0.000000     1.000000     0.000000     0.000000     0.500000
   10     1.000000   180.000000     0.866025    -0.500000     0.000000     0.000000     0.000000     0.500000
   11     1.000000   180.000000     0.000000     1.000000     0.000000     0.000000     0.000000     0.500000
   12     1.000000   180.000000     0.866025     0.500000     0.000000     0.000000     0.000000     0.500000

 Subroutine IBZKPT returns following result:

 Found     72 irreducible k-points:

 Following reciprocal coordinates:
            Coordinates               Weight
  0.031250  0.031250  0.000000     48.000000
  0.093750  0.031250  0.000000     96.000000
  0.156250  0.031250  0.000000     96.000000
  0.218750  0.031250  0.000000     96.000000
  0.281250  0.031250  0.000000     96.000000
  0.343750  0.031250  0.000000     96.000000
  0.406250  0.031250  0.000000     96.000000
  0.468750  0.031250  0.000000     96.000000
 -0.468750  0.031250  0.000000     96.000000
 -0.406250  0.031250  0.000000     96.000000
 -0.343750  0.031250  0.000000     96.000000
 -0.281250  0.031250  0.000000     96.000000
 -0.218750  0.031250  0.000000     96.000000
 -0.156250  0.031250  0.000000     96.000000
 -0.093750  0.031250  0.000000     96.000000
 -0.031250  0.031250  0.000000     48.000000
  0.093750  0.093750  0.000000     48.000000
  0.156250  0.093750  0.000000     96.000000
  0.218750  0.093750  0.000000     96.000000
  0.281250  0.093750  0.000000     96.000000
  0.343750  0.093750  0.000000     96.000000
  0.406250  0.093750  0.000000     96.000000
  0.468750  0.093750  0.000000     96.000000
 -0.468750  0.093750  0.000000     96.000000
 -0.406250  0.093750  0.000000     96.000000
 -0.343750  0.093750  0.000000     96.000000
 -0.281250  0.093750  0.000000     96.000000
 -0.218750  0.093750  0.000000     96.000000
 -0.156250  0.093750  0.000000     96.000000
 -0.093750  0.093750  0.000000     48.000000
  0.156250  0.156250  0.000000     48.000000
  0.218750  0.156250  0.000000     96.000000
  0.281250  0.156250  0.000000     96.000000
  0.343750  0.156250  0.000000     96.000000
  0.406250  0.156250  0.000000     96.000000
  0.468750  0.156250  0.000000     96.000000
 -0.468750  0.156250  0.000000     96.000000
 -0.406250  0.156250  0.000000     96.000000
 -0.343750  0.156250  0.000000     96.000000
 -0.281250  0.156250  0.000000     96.000000
 -0.218750  0.156250  0.000000     96.000000
 -0.156250  0.156250  0.000000     48.000000
  0.218750  0.218750  0.000000     48.000000
  0.281250  0.218750  0.000000     96.000000
  0.343750  0.218750  0.000000     96.000000
  0.406250  0.218750  0.000000     96.000000
  0.468750  0.218750  0.000000     96.000000
 -0.468750  0.218750  0.000000     96.000000
 -0.406250  0.218750  0.000000     96.000000
 -0.343750  0.218750  0.000000     96.000000
 -0.281250  0.218750  0.000000     96.000000
 -0.218750  0.218750  0.000000     48.000000
  0.281250  0.281250  0.000000     48.000000
  0.343750  0.281250  0.000000     96.000000
  0.406250  0.281250  0.000000     96.000000
  0.468750  0.281250  0.000000     96.000000
 -0.468750  0.281250  0.000000     96.000000
 -0.406250  0.281250  0.000000     96.000000
 -0.343750  0.281250  0.000000     96.000000
 -0.281250  0.281250  0.000000     48.000000
  0.343750  0.343750  0.000000     48.000000
  0.406250  0.343750  0.000000     96.000000
  0.468750  0.343750  0.000000     96.000000
 -0.468750  0.343750  0.000000     96.000000
 -0.406250  0.343750  0.000000     96.000000
 -0.343750  0.343750  0.000000     48.000000
  0.406250  0.406250  0.000000     48.000000
  0.468750  0.406250  0.000000     96.000000
 -0.468750  0.406250  0.000000     96.000000
 -0.406250  0.406250  0.000000     48.000000
  0.468750  0.468750  0.000000     48.000000
 -0.468750  0.468750  0.000000     48.000000

 Following cartesian coordinates:
            Coordinates               Weight
  0.009815  0.017000  0.000000     48.000000
  0.029445  0.028334  0.000000     96.000000
  0.049076  0.039667  0.000000     96.000000
  0.068706  0.051001  0.000000     96.000000
  0.088336  0.062334  0.000000     96.000000
  0.107966  0.073668  0.000000     96.000000
  0.127597  0.085002  0.000000     96.000000
  0.147227  0.096335  0.000000     96.000000
 -0.147227 -0.073668  0.000000     96.000000
 -0.127597 -0.062334  0.000000     96.000000
 -0.107966 -0.051001  0.000000     96.000000
 -0.088336 -0.039667  0.000000     96.000000
 -0.068706 -0.028334  0.000000     96.000000
 -0.049076 -0.017000  0.000000     96.000000
 -0.029445 -0.005667  0.000000     96.000000
 -0.009815  0.005667  0.000000     48.000000
  0.029445  0.051001  0.000000     48.000000
  0.049076  0.062334  0.000000     96.000000
  0.068706  0.073668  0.000000     96.000000
  0.088336  0.085002  0.000000     96.000000
  0.107966  0.096335  0.000000     96.000000
  0.127597  0.107669  0.000000     96.000000
  0.147227  0.119002  0.000000     96.000000
 -0.147227 -0.051001  0.000000     96.000000
 -0.127597 -0.039667  0.000000     96.000000
 -0.107966 -0.028334  0.000000     96.000000
 -0.088336 -0.017000  0.000000     96.000000
 -0.068706 -0.005667  0.000000     96.000000
 -0.049076  0.005667  0.000000     96.000000
 -0.029445  0.017000  0.000000     48.000000
  0.049076  0.085002  0.000000     48.000000
  0.068706  0.096335  0.000000     96.000000
  0.088336  0.107669  0.000000     96.000000
  0.107966  0.119002  0.000000     96.000000
  0.127597  0.130336  0.000000     96.000000
  0.147227  0.141669  0.000000     96.000000
 -0.147227 -0.028334  0.000000     96.000000
 -0.127597 -0.017000  0.000000     96.000000
 -0.107966 -0.005667  0.000000     96.000000
 -0.088336  0.005667  0.000000     96.000000
 -0.068706  0.017000  0.000000     96.000000
 -0.049076  0.028334  0.000000     48.000000
  0.068706  0.119002  0.000000     48.000000
  0.088336  0.130336  0.000000     96.000000
  0.107966  0.141669  0.000000     96.000000
  0.127597  0.153003  0.000000     96.000000
  0.147227  0.164336  0.000000     96.000000
 -0.147227 -0.005667  0.000000     96.000000
 -0.127597  0.005667  0.000000     96.000000
 -0.107966  0.017000  0.000000     96.000000
 -0.088336  0.028334  0.000000     96.000000
 -0.068706  0.039667  0.000000     48.000000
  0.088336  0.153003  0.000000     48.000000
  0.107966  0.164336  0.000000     96.000000
  0.127597  0.175670  0.000000     96.000000
  0.147227  0.187003  0.000000     96.000000
 -0.147227  0.017000  0.000000     96.000000
 -0.127597  0.028334  0.000000     96.000000
 -0.107966  0.039667  0.000000     96.000000
 -0.088336  0.051001  0.000000     48.000000
  0.107966  0.187003  0.000000     48.000000
  0.127597  0.198337  0.000000     96.000000
  0.147227  0.209670  0.000000     96.000000
 -0.147227  0.039667  0.000000     96.000000
 -0.127597  0.051001  0.000000     96.000000
 -0.107966  0.062334  0.000000     48.000000
  0.127597  0.221004  0.000000     48.000000
  0.147227  0.232337  0.000000     96.000000
 -0.147227  0.062334  0.000000     96.000000
 -0.127597  0.073668  0.000000     48.000000
  0.147227  0.255005  0.000000     48.000000
 -0.147227  0.085002  0.000000     48.000000

 SYSTEM =  unknown system
 POSCAR =  Mo2 S4

 Startparameter for this run:
   NWRITE =      2    write-flag & timer
   PREC   = normal    normal or accurate (medium, high low for compatibility)
   ISTART =      1    job   : 0-new  1-cont  2-samecut
   ICHARG =     11    charge: 1-file 2-atom 10-const
[...]
  -0.10796641  0.03966737  0.00000000       0.016
  -0.08833616  0.05100090  0.00000000       0.008
   0.10796641  0.18700332  0.00000000       0.008
   0.12759667  0.19833685  0.00000000       0.016
   0.14722693  0.20967038  0.00000000       0.016
  -0.14722693  0.03966737  0.00000000       0.016
  -0.12759667  0.05100090  0.00000000       0.016
  -0.10796641  0.06233444  0.00000000       0.008
   0.12759667  0.22100392  0.00000000       0.008
   0.14722693  0.23233745  0.00000000       0.016
  -0.14722693  0.06233444  0.00000000       0.016
  -0.12759667  0.07366797  0.00000000       0.008
   0.14722693  0.25500452  0.00000000       0.008
  -0.14722693  0.08500151  0.00000000       0.008

 k-points in reciprocal lattice and weights: K-Spacing Value to Generate K-Mesh: 0.04
   0.03125000  0.03125000  0.00000000       0.008
   0.09375000  0.03125000  0.00000000       0.016
   0.15625000  0.03125000  0.00000000       0.016
   0.21875000  0.03125000  0.00000000       0.016
   0.28125000  0.03125000  0.00000000       0.016
   0.34375000  0.03125000  0.00000000       0.016
   0.40625000  0.03125000  0.00000000       0.016
   0.46875000  0.03125000  0.00000000       0.016
  -0.46875000  0.03125000  0.00000000       0.016
  -0.40625000  0.03125000  0.00000000       0.016
  -0.34375000  0.03125000  0.00000000       0.016
  -0.28125000  0.03125000  0.00000000       0.016
  -0.21875000  0.03125000  0.00000000       0.016
  -0.15625000  0.03125000  0.00000000       0.016
  -0.09375000  0.03125000  0.00000000       0.016
  -0.03125000  0.03125000  0.00000000       0.008
   0.09375000  0.09375000  0.00000000       0.008
   0.15625000  0.09375000  0.00000000       0.016
   0.21875000  0.09375000  0.00000000       0.016
   0.28125000  0.09375000  0.00000000       0.016
   0.34375000  0.09375000  0.00000000       0.016
   0.40625000  0.09375000  0.00000000       0.016
   0.46875000  0.09375000  0.00000000       0.016
  -0.46875000  0.09375000  0.00000000       0.016
  -0.40625000  0.09375000  0.00000000       0.016
  -0.34375000  0.09375000  0.00000000       0.016
  -0.28125000  0.09375000  0.00000000       0.016
  -0.21875000  0.09375000  0.00000000       0.016
  -0.15625000  0.09375000  0.00000000       0.016
  -0.09375000  0.09375000  0.00000000       0.008
   0.15625000  0.15625000  0.00000000       0.008
   0.21875000  0.15625000  0.00000000       0.016
   0.28125000  0.15625000  0.00000000       0.016
   0.34375000  0.15625000  0.00000000       0.016
   0.40625000  0.15625000  0.00000000       0.016
   0.46875000  0.15625000  0.00000000       0.016
  -0.46875000  0.15625000  0.00000000       0.016
  -0.40625000  0.15625000  0.00000000       0.016
  -0.34375000  0.15625000  0.00000000       0.016
  -0.28125000  0.15625000  0.00000000       0.016
  -0.21875000  0.15625000  0.00000000       0.016
  -0.15625000  0.15625000  0.00000000       0.008
   0.21875000  0.21875000  0.00000000       0.008
   0.28125000  0.21875000  0.00000000       0.016
   0.34375000  0.21875000  0.00000000       0.016
   0.40625000  0.21875000  0.00000000       0.016
   0.46875000  0.21875000  0.00000000       0.016
  -0.46875000  0.21875000  0.00000000       0.016
  -0.40625000  0.21875000  0.00000000       0.016
  -0.34375000  0.21875000  0.00000000       0.016
  -0.28125000  0.21875000  0.00000000       0.016
  -0.21875000  0.21875000  0.00000000       0.008
   0.28125000  0.28125000  0.00000000       0.008
   0.34375000  0.28125000  0.00000000       0.016
   0.40625000  0.28125000  0.00000000       0.016
   0.46875000  0.28125000  0.00000000       0.016
  -0.46875000  0.28125000  0.00000000       0.016
  -0.40625000  0.28125000  0.00000000       0.016
  -0.34375000  0.28125000  0.00000000       0.016
  -0.28125000  0.28125000  0.00000000       0.008
   0.34375000  0.34375000  0.00000000       0.008
   0.40625000  0.34375000  0.00000000       0.016
   0.46875000  0.34375000  0.00000000       0.016
  -0.46875000  0.34375000  0.00000000       0.016
  -0.40625000  0.34375000  0.00000000       0.016
  -0.34375000  0.34375000  0.00000000       0.008
   0.40625000  0.40625000  0.00000000       0.008
   0.46875000  0.40625000  0.00000000       0.016
  -0.46875000  0.40625000  0.00000000       0.016
  -0.40625000  0.40625000  0.00000000       0.008
   0.46875000  0.46875000  0.00000000       0.008
  -0.46875000  0.46875000  0.00000000       0.008

 position of ions in fractional coordinates (direct lattice)
   0.66666669  0.33333334  0.25000000
   0.33333334  0.66666669  0.35415213
   0.33333334  0.66666669  0.14584787

 position of ions in cartesian coordinates  (Angst):
   1.59193028  0.91910138  3.75000000
  -0.00000000  1.83820275  5.31228195
  -0.00000000  1.83820275  2.18771805

 k-point  1 :   0.0312 0.0312 0.0000  plane waves:    1231
 k-point  2 :   0.0938 0.0312 0.0000  plane waves:    1234
 k-point  3 :   0.1562 0.0312 0.0000  plane waves:    1238
 k-point  4 :   0.2188 0.0312 0.0000  plane waves:    1235
 k-point  5 :   0.2812 0.0312 0.0000  plane waves:    1241
 k-point  6 :   0.3438 0.0312 0.0000  plane waves:    1253
 k-point  7 :   0.4062 0.0313 0.0000  plane waves:    1262
 k-point  8 :   0.4687 0.0313 0.0000  plane waves:    1258
 k-point  9 :  -0.4687 0.0312 0.0000  plane waves:    1260
 k-point 10 :  -0.4062 0.0312 0.0000  plane waves:    1252
 k-point 11 :  -0.3438 0.0312 0.0000  plane waves:    1249
 k-point 12 :  -0.2812 0.0312 0.0000  plane waves:    1235
 k-point 13 :  -0.2188 0.0312 0.0000  plane waves:    1237
 k-point 14 :  -0.1562 0.0312 0.0000  plane waves:    1239
 k-point 15 :  -0.0938 0.0312 0.0000  plane waves:    1236
 k-point 16 :  -0.0312 0.0312 0.0000  plane waves:    1227
 k-point 17 :   0.0938 0.0938 0.0000  plane waves:    1232
 k-point 18 :   0.1562 0.0938 0.0000  plane waves:    1238
 k-point 19 :   0.2188 0.0938 0.0000  plane waves:    1239
 k-point 20 :   0.2812 0.0938 0.0000  plane waves:    1243
 k-point 21 :   0.3438 0.0938 0.0000  plane waves:    1250
 k-point 22 :   0.4062 0.0938 0.0000  plane waves:    1252
 k-point 23 :   0.4687 0.0938 0.0000  plane waves:    1252
 k-point 24 :  -0.4687 0.0937 0.0000  plane waves:    1254
 k-point 25 :  -0.4062 0.0937 0.0000  plane waves:    1245
 k-point 26 :  -0.3438 0.0937 0.0000  plane waves:    1245
 k-point 27 :  -0.2812 0.0938 0.0000  plane waves:    1231
 k-point 28 :  -0.2188 0.0938 0.0000  plane waves:    1234
 k-point 29 :  -0.1562 0.0938 0.0000  plane waves:    1229
 k-point 30 :  -0.0938 0.0938 0.0000  plane waves:    1223
 k-point 31 :   0.1562 0.1562 0.0000  plane waves:    1234
 k-point 32 :   0.2188 0.1562 0.0000  plane waves:    1247
 k-point 33 :   0.2812 0.1562 0.0000  plane waves:    1238
 k-point 34 :   0.3438 0.1562 0.0000  plane waves:    1238
 k-point 35 :   0.4062 0.1562 0.0000  plane waves:    1246
 k-point 36 :   0.4687 0.1563 0.0000  plane waves:    1240
 k-point 37 :  -0.4687 0.1562 0.0000  plane waves:    1239
 k-point 38 :  -0.4062 0.1563 0.0000  plane waves:    1247
 k-point 39 :  -0.3438 0.1562 0.0000  plane waves:    1235
 k-point 40 :  -0.2812 0.1562 0.0000  plane waves:    1238
 k-point 41 :  -0.2188 0.1562 0.0000  plane waves:    1239
 k-point 42 :  -0.1562 0.1562 0.0000  plane waves:    1237
 k-point 43 :   0.2188 0.2188 0.0000  plane waves:    1242
 k-point 44 :   0.2812 0.2188 0.0000  plane waves:    1245
 k-point 45 :   0.3438 0.2188 0.0000  plane waves:    1239
 k-point 46 :   0.4062 0.2187 0.0000  plane waves:    1250
 k-point 47 :   0.4687 0.2188 0.0000  plane waves:    1247
 k-point 48 :  -0.4687 0.2187 0.0000  plane waves:    1240
 k-point 49 :  -0.4062 0.2187 0.0000  plane waves:    1248
 k-point 50 :  -0.3438 0.2188 0.0000  plane waves:    1241
 k-point 51 :  -0.2812 0.2188 0.0000  plane waves:    1237
 k-point 52 :  -0.2188 0.2188 0.0000  plane waves:    1235
 k-point 53 :   0.2812 0.2813 0.0000  plane waves:    1254
 k-point 54 :   0.3438 0.2813 0.0000  plane waves:    1256
 k-point 55 :   0.4062 0.2812 0.0000  plane waves:    1250
 k-point 56 :   0.4687 0.2812 0.0000  plane waves:    1247
 k-point 57 :  -0.4687 0.2812 0.0000  plane waves:    1242
 k-point 58 :  -0.4062 0.2812 0.0000  plane waves:    1247
 k-point 59 :  -0.3438 0.2812 0.0000  plane waves:    1249
 k-point 60 :  -0.2812 0.2812 0.0000  plane waves:    1243
 k-point 61 :   0.3438 0.3438 0.0000  plane waves:    1266
 k-point 62 :   0.4062 0.3438 0.0000  plane waves:    1254
 k-point 63 :   0.4687 0.3438 0.0000  plane waves:    1245
 k-point 64 :  -0.4687 0.3438 0.0000  plane waves:    1243
 k-point 65 :  -0.4062 0.3438 0.0000  plane waves:    1253
 k-point 66 :  -0.3438 0.3438 0.0000  plane waves:    1257
 k-point 67 :   0.4062 0.4062 0.0000  plane waves:    1240
 k-point 68 :   0.4687 0.4062 0.0000  plane waves:    1244
 k-point 69 :  -0.4687 0.4062 0.0000  plane waves:    1262
 k-point 70 :  -0.4062 0.4062 0.0000  plane waves:    1256
 k-point 71 :   0.4687 0.4687 0.0000  plane waves:    1252
 k-point 72 :  -0.4687 0.4688 0.0000  plane waves:    1266

 maximum and minimum number of plane-waves per node :      1266     1223

 maximum number of plane-waves:      1266
 maximum index in each direction:
   IXMAX=    4   IYMAX=    4   IZMAX=   19
   IXMIN=   -4   IYMIN=   -4   IZMIN=  -19

 serial   3D FFT for wavefunctions
 parallel 3D FFT for charge:
    minimum data exchange during FFTs selected (reduces bandwidth)

 initial charge density was supplied:
 number of electron      26.0000001 magnetization
 keeping initial charge density in first step

 Maximum index for augmentation-charges         2774 (set IRDMAX)

 First call to EWALD:  gamma=   0.348
 Maximum number of real-space cells 5x 5x 1
 Maximum number of reciprocal cells 2x 2x 7

--------------------------------------- Iteration      1(   1)  ---------------------------------------

 eigenvalue-minimisations  :  4344
 total energy-change (2. order) :-0.2181536E+02  (-0.5441256E-05)
 number of electron      26.0000001 magnetization
 augmentation part       26.0000001 magnetization

 Free energy of the ion-electron system (eV)
  alpha Z        PSCENC =        35.92459719
  Ewald energy   TEWEN  =      2754.58837668
  -Hartree energ DENC   =     -4899.31974755
  -exchange      EXHF   =         0.00000000
  -V(xc)+E(xc)   XCENC  =        90.81148476
  PAW double counting   =      3040.60830156    -3019.62152118
  entropy T*S    EENTRO =        -0.00000000
  eigenvalues    EBANDS =      -440.59346709
  atomic energy  EATOM  =      2415.78662005
  Solvation  Ediel_sol  =         0.00000000
  free energy    TOTEN  =       -21.81535559 eV

  energy without entropy =      -21.81535559  energy(sigma->0) =      -21.81535559

[...]

--------------------------------------- Iteration      1(   3)  ---------------------------------------

 eigenvalue-minimisations  :  3924
 total energy-change (2. order) :-0.2719389E-09  (-0.2652890E-09)
 number of electron      26.0000001 magnetization
 augmentation part       26.0000001 magnetization

 Free energy of the ion-electron system (eV)
  alpha Z        PSCENC =        35.92459719
  Ewald energy   TEWEN  =      2754.58837668
  -Hartree energ DENC   =     -4899.31974755
  -exchange      EXHF   =         0.00000000
  -V(xc)+E(xc)   XCENC  =        90.81148476
  PAW double counting   =      3040.60830156    -3019.62152118
  entropy T*S    EENTRO =        -0.00000000
  eigenvalues    EBANDS =      -440.59346715
  atomic energy  EATOM  =      2415.78662005
  Solvation  Ediel_sol  =         0.00000000
  free energy    TOTEN  =       -21.81535564 eV

  energy without entropy =      -21.81535564  energy(sigma->0) =      -21.81535564

 average (electrostatic) potential at core
  the test charge radii are     1.0818  0.9698
  (the norm of the test charge is              1.0000)
       1 -82.3280       2 -92.0335       3 -92.0335

 E-fermi :  -0.5300     XC(G=0):  -5.1107     alpha+bet : -5.4812

 k-point     1 :       0.0312    0.0312    0.0000
  band No.  band energies     occupation
      1     -61.5706      2.00000
      2     -35.7345      2.00000
      3     -35.5399      2.00000
      4     -35.5311      2.00000
      5     -14.7694      2.00000
      6     -13.4917      2.00000
      7      -6.2881      2.00000
      8      -3.4376      2.00000
      9      -3.2920      2.00000
     10      -2.7749      2.00000
     11      -2.3050      2.00000
     12      -2.0162      2.00000
     13      -0.7525      2.00000
     14       1.9641      0.00000
     15       2.1126      0.00000
     16       2.1490      0.00000
     17       2.2257      0.00000
     18       4.6169      0.00000
     19       5.1606      0.00000
     20       5.6929      0.00000
     21       6.6713      0.00000
     22       8.5614      0.00000
     23       8.8395      0.00000
     24       9.9933      0.00000

[...]

 k-point    72 :      -0.4687    0.4688    0.0000
  band No.  band energies     occupation
      1     -61.5351      2.00000
      2     -35.8961      2.00000
      3     -35.6635      2.00000
      4     -35.6150      2.00000
      5     -12.9729      2.00000
      6     -12.7779      2.00000
      7      -6.4650      2.00000
      8      -5.4780      2.00000
      9      -4.7801      2.00000
     10      -3.8760      2.00000
     11      -2.5937      2.00000
     12      -1.7241      2.00000
     13      -1.3837      2.00000
     14       1.5059      0.00000
     15       1.9964      0.00000
     16       3.1329      0.00000
     17       3.5732      0.00000
     18       5.5330      0.00000
     19       7.2070      0.00000
     20       7.4680      0.00000
     21       8.2426      0.00000
     22       8.9198      0.00000
     23       9.6473      0.00000
     24       9.6770      0.00000

 soft charge-density along one line, spin component           1
         0         1         2         3         4         5         6         7         8         9
 total charge-density along one line

------------------------ aborting loop because EDIFF is reached ----------------------------------------

  FORCE on cell =-STRESS in cart. coord.  units (eV):
  Direction    XX          YY          ZZ          XY          YZ          ZX
  Alpha Z    35.92460    35.92460    35.92460
  Ewald    4160.38303  4160.38305 -5566.17682     0.00001     0.00000    -0.00000
  Hartree  4654.39795  4654.39795 -4409.45205     0.00000    -0.00000    -0.00000
  E(xc)    -109.63602  -109.63602  -109.85972    -0.00000     0.00000     0.00000
  Local   -9273.52857 -9273.52879  9509.55286    -0.00020    -0.00002    -0.00001
  n-local   116.66447   120.85773   124.16338    -1.21080    -0.00000     0.00000
  augment    -0.74215    -0.74197    -1.89296     0.00015     0.00000     0.00000
  Kinetic   408.36060   419.28035   417.10561    -3.15190    -0.00000    -0.00000
  Fock        0.00000     0.00000     0.00000     0.00000     0.00000     0.00000
  Total      -0.61960    -0.61960    -0.63509    -0.00000     0.00000     0.00000
  in kB      -7.53859    -7.53859    -7.72714    -0.00000     0.00000     0.00000

 VOLUME and BASIS-vectors are now :
  energy-cutoff  :      258.69
  volume of cell :      131.68
      direct lattice vectors                 reciprocal lattice vectors
     3.183860469  0.000000000  0.000000000     0.314084116  0.181336549  0.000000000
    -1.591930234  2.757304048  0.000000000     0.000000000  0.362673098  0.000000000
     0.000000000  0.000000000 15.000000000     0.000000000  0.000000000  0.066666667

  length of vectors
     3.183860469  3.183860469 15.000000000     0.362673098  0.362673098  0.066666667

 FORCES acting on ions
    electron-ion (+dipol)            ewald-force                    non-local-force                 convergence-correction
   -.842E-04 -.450E-04 0.258E-05   -.695E-05 0.401E-05 0.114E-12   0.266E-16 -.267E-16 0.529E-22   -.270E-02 0.165E-02 -.178E-10
   0.788E-06 -.303E-04 -.834E+03   0.348E-05 -.201E-05 0.838E+03   0.219E-17 -.226E-17 -.472E+01   0.181E-03 -.103E-03 0.270E-02
   0.490E-05 -.232E-04 0.834E+03   0.348E-05 -.201E-05 -.838E+03   0.231E-17 0.949E-18 0.472E+01   0.181E-03 -.103E-03 -.270E-02
   -.785E-04 -.984E-04 0.226E-05   0.103E-13 0.547E-14 0.000E+00   0.311E-16 -.280E-16 0.000E+00   -.234E-02 0.144E-02 -.497E-10

 POSITION                                       TOTAL-FORCE (eV/Angst)
      1.59193      0.91910      3.75000         0.000000      0.000000      0.000000
     -0.00000      1.83820      5.31228        -0.000000     -0.000000      0.031260
     -0.00000      1.83820      2.18772        -0.000000     -0.000000     -0.031260
    total drift:                               -0.002417      0.001342      0.000002

  FREE ENERGIE OF THE ION-ELECTRON SYSTEM (eV)
  free  energy   TOTEN  =       -21.81535564 eV

  energy  without entropy=      -21.81535564  energy(sigma->0) =      -21.81535564

 writing wavefunctions